 C  H                                   
   1.00000000000000     
    26.7890000000000015    0.0000000000000000    0.0000000000000000
     0.0000000000000000    7.1699999999999999    0.0000000000000000
     0.0000000000000000    0.0000000000000000   14.2110000000000003
   C    H 
   168   112
Direct
  0.0274800714128881  0.0000000000000000  0.0000000000000000
  0.9725199285871119  0.0000000000000000  0.0000000000000000
  0.9725199285871119  0.5000000000000000  0.5000000000000000
  0.0274800714128881  0.5000000000000000  0.5000000000000000
  0.5274800714128881  0.5000000000000000  0.0000000000000000
  0.4725199285871119  0.5000000000000000  0.0000000000000000
  0.4725199285871119  0.0000000000000000  0.5000000000000000
  0.5274800714128881  0.0000000000000000  0.5000000000000000
  0.0533303092316470  0.8551362242584474  0.0486205151664836
  0.9466696907683533  0.1448637757415528  0.9513794848335165
  0.9466696907683533  0.6448637757415526  0.5486205151664835
  0.0533303092316470  0.3551362242584474  0.4513794848335165
  0.9466696907683533  0.3551362242584473  0.4513794848335165
  0.0533303092316470  0.6448637757415527  0.5486205151664835
  0.0533303092316470  0.1448637757415528  0.9513794848335165
  0.9466696907683533  0.8551362242584474  0.0486205151664836
  0.5533303092316467  0.3551362242584473  0.0486205151664836
  0.4466696907683531  0.6448637757415526  0.9513794848335165
  0.4466696907683531  0.1448637757415528  0.5486205151664835
  0.5533303092316467  0.8551362242584474  0.4513794848335165
  0.4466696907683531  0.8551362242584473  0.4513794848335165
  0.5533303092316467  0.1448637757415528  0.5486205151664835
  0.5533303092316467  0.6448637757415526  0.9513794848335165
  0.4466696907683531  0.3551362242584473  0.0486205151664836
  0.0270283593590171  0.7027774396760836  0.0871593942612855
  0.9729716406409830  0.2972225603239168  0.9128406057387145
  0.9729716406409830  0.7972225603239164  0.5871593942612855
  0.0270283593590171  0.2027774396760832  0.4128406057387145
  0.9729716406409830  0.2027774396760832  0.4128406057387145
  0.0270283593590171  0.7972225603239164  0.5871593942612855
  0.0270283593590171  0.2972225603239169  0.9128406057387145
  0.9729716406409830  0.7027774396760836  0.0871593942612855
  0.5270283593590170  0.2027774396760832  0.0871593942612855
  0.4729716406409828  0.7972225603239165  0.9128406057387145
  0.4729716406409828  0.2972225603239168  0.5871593942612855
  0.5270283593590170  0.7027774396760836  0.4128406057387145
  0.4729716406409828  0.7027774396760836  0.4128406057387145
  0.5270283593590170  0.2972225603239168  0.5871593942612855
  0.5270283593590170  0.7972225603239164  0.9128406057387145
  0.4729716406409828  0.2027774396760832  0.0871593942612855
  0.0523057869206449  0.5518752555477155  0.1337034754881095
  0.9476942130793552  0.4481247444522774  0.8662965245118907
  0.9476942130793552  0.9481247444522845  0.6337034754881093
  0.0523057869206449  0.0518752555477226  0.3662965245118905
  0.9476942130793552  0.0518752555477226  0.3662965245118905
  0.0523057869206449  0.9481247444522845  0.6337034754881093
  0.0523057869206449  0.4481247444522774  0.8662965245118907
  0.9476942130793552  0.5518752555477155  0.1337034754881095
  0.5523057869206448  0.0518752555477226  0.1337034754881095
  0.4476942130793551  0.9481247444522845  0.8662965245118907
  0.4476942130793551  0.4481247444522774  0.6337034754881093
  0.5523057869206448  0.5518752555477155  0.3662965245118905
  0.4476942130793551  0.5518752555477155  0.3662965245118905
  0.5523057869206448  0.4481247444522774  0.6337034754881093
  0.5523057869206448  0.9481247444522845  0.8662965245118907
  0.4476942130793551  0.0518752555477226  0.1337034754881095
  0.0265472260316126  0.4089095096563728  0.1755987984140989
  0.9734527739683874  0.5910904903436273  0.8244012015859008
  0.9734527739683874  0.0910904903436272  0.6755987984140989
  0.0265472260316126  0.9089095096563727  0.3244012015859010
  0.9734527739683874  0.9089095096563727  0.3244012015859010
  0.0265472260316126  0.0910904903436272  0.6755987984140990
  0.0265472260316126  0.5910904903436273  0.8244012015859010
  0.9734527739683874  0.4089095096563728  0.1755987984140989
  0.5265472260316126  0.9089095096563727  0.1755987984140989
  0.4734527739683874  0.0910904903436272  0.8244012015859008
  0.4734527739683875  0.5910904903436273  0.6755987984140990
  0.5265472260316126  0.4089095096563728  0.3244012015859010
  0.4734527739683874  0.4089095096563728  0.3244012015859010
  0.5265472260316126  0.5910904903436273  0.6755987984140990
  0.5265472260316126  0.0910904903436272  0.8244012015859010
  0.4734527739683874  0.9089095096563727  0.1755987984140989
  0.1076636029639296  0.8654847632766802  0.0723752750594640
  0.8923363970360702  0.1345152367233267  0.9276247249405363
  0.8923363970360702  0.6345152367233198  0.5723752750594637
  0.1076636029639296  0.3654847632766735  0.4276247249405360
  0.8923363970360702  0.3654847632766735  0.4276247249405360
  0.1076636029639296  0.6345152367233198  0.5723752750594637
  0.1076636029639296  0.1345152367233267  0.9276247249405363
  0.8923363970360703  0.8654847632766802  0.0723752750594640
  0.6076636029639298  0.3654847632766735  0.0723752750594640
  0.3923363970360706  0.6345152367233198  0.9276247249405363
  0.3923363970360706  0.1345152367233267  0.5723752750594637
  0.6076636029639297  0.8654847632766802  0.4276247249405360
  0.3923363970360706  0.8654847632766802  0.4276247249405360
  0.6076636029639298  0.1345152367233267  0.5723752750594637
  0.6076636029639298  0.6345152367233198  0.9276247249405363
  0.3923363970360706  0.3654847632766735  0.0723752750594640
  0.1430973932434875  0.7513159974070990  0.0279877187711336
  0.8569026067565125  0.2486840025929008  0.9720122812288664
  0.8569026067565125  0.7486840025929010  0.5279877187711336
  0.1430973932434875  0.2513159974070992  0.4720122812288662
  0.8569026067565125  0.2513159974070992  0.4720122812288662
  0.1430973932434875  0.7486840025929010  0.5279877187711336
  0.1430973932434875  0.2486840025929008  0.9720122812288664
  0.8569026067565125  0.7513159974070990  0.0279877187711336
  0.6430973932434875  0.2513159974070992  0.0279877187711336
  0.3569026067565125  0.7486840025929010  0.9720122812288664
  0.3569026067565125  0.2486840025929008  0.5279877187711336
  0.6430973932434875  0.7513159974070990  0.4720122812288662
  0.3569026067565125  0.7513159974070990  0.4720122812288662
  0.6430973932434875  0.2486840025929008  0.5279877187711336
  0.6430973932434875  0.7486840025929010  0.9720122812288664
  0.3569026067565125  0.2513159974070992  0.0279877187711336
  0.1925041637391482  0.7483098854598181  0.0591205370992631
  0.8074958362608519  0.2516901145401816  0.9408794629007369
  0.8074958362608519  0.7516901145401819  0.5591205370992631
  0.1925041637391482  0.2483098854598183  0.4408794629007369
  0.8074958362608519  0.2483098854598183  0.4408794629007369
  0.1925041637391482  0.7516901145401818  0.5591205370992631
  0.1925041637391482  0.2516901145401816  0.9408794629007368
  0.8074958362608519  0.7483098854598181  0.0591205370992631
  0.6925041637391481  0.2483098854598184  0.0591205370992631
  0.3074958362608519  0.7516901145401819  0.9408794629007369
  0.3074958362608519  0.2516901145401816  0.5591205370992631
  0.6925041637391481  0.7483098854598181  0.4408794629007369
  0.3074958362608519  0.7483098854598181  0.4408794629007369
  0.6925041637391481  0.2516901145401816  0.5591205370992631
  0.6925041637391481  0.7516901145401819  0.9408794629007368
  0.3074958362608519  0.2483098854598184  0.0591205370992631
  0.2075266600825700  0.8611809032357834  0.1345067246199425
  0.7924733399174301  0.1388190967642166  0.8654932753800647
  0.7924733399174301  0.6388190967642166  0.6345067246199353
  0.2075266600825700  0.3611809032357833  0.3654932753800646
  0.7924733399174301  0.3611809032357833  0.3654932753800646
  0.2075266600825700  0.6388190967642166  0.6345067246199353
  0.2075266600825700  0.1388190967642166  0.8654932753800647
  0.7924733399174301  0.8611809032357834  0.1345067246199425
  0.7075266600825699  0.3611809032357833  0.1345067246199425
  0.2924733399174298  0.6388190967642166  0.8654932753800647
  0.2924733399174299  0.1388190967642166  0.6345067246199353
  0.7075266600825699  0.8611809032357834  0.3654932753800647
  0.2924733399174299  0.8611809032357834  0.3654932753800646
  0.7075266600825699  0.1388190967642167  0.6345067246199353
  0.7075266600825699  0.6388190967642166  0.8654932753800647
  0.2924733399174299  0.3611809032357833  0.1345067246199425
  0.1724826743952740  0.9758519909337791  0.1792783210855106
  0.8275173256047260  0.0241480090662211  0.8207216789144894
  0.8275173256047260  0.5241480090662209  0.6792783210855106
  0.1724826743952740  0.4758519909337789  0.3207216789144895
  0.8275173256047260  0.4758519909337789  0.3207216789144895
  0.1724826743952740  0.5241480090662209  0.6792783210855106
  0.1724826743952740  0.0241480090662211  0.8207216789144894
  0.8275173256047260  0.9758519909337791  0.1792783210855106
  0.6724826743952740  0.4758519909337789  0.1792783210855106
  0.3275173256047259  0.5241480090662209  0.8207216789144894
  0.3275173256047259  0.0241480090662211  0.6792783210855106
  0.6724826743952740  0.9758519909337791  0.3207216789144895
  0.3275173256047259  0.9758519909337791  0.3207216789144895
  0.6724826743952740  0.0241480090662211  0.6792783210855106
  0.6724826743952740  0.5241480090662209  0.8207216789144894
  0.3275173256047259  0.4758519909337789  0.1792783210855106
  0.1228623166408999  0.9765632181005102  0.1486047358175816
  0.8771376833591003  0.0234367818994898  0.8513952641824182
  0.8771376833591003  0.5234367818994898  0.6486047358175818
  0.1228623166408999  0.4765632181005102  0.3513952641824183
  0.8771376833591003  0.4765632181005102  0.3513952641824182
  0.1228623166408998  0.5234367818994898  0.6486047358175818
  0.1228623166408999  0.0234367818994898  0.8513952641824182
  0.8771376833591003  0.9765632181005102  0.1486047358175816
  0.6228623166408997  0.4765632181005102  0.1486047358175816
  0.3771376833591001  0.5234367818994898  0.8513952641824182
  0.3771376833591001  0.0234367818994898  0.6486047358175818
  0.6228623166408997  0.9765632181005102  0.3513952641824183
  0.3771376833591001  0.9765632181005102  0.3513952641824182
  0.6228623166408997  0.0234367818994898  0.6486047358175818
  0.6228623166408997  0.5234367818994898  0.8513952641824182
  0.3771376833591001  0.4765632181005102  0.1486047358175816
  0.0928747052277513  0.5525999485213785  0.1360316234282109
  0.9071252947722485  0.4474000514786214  0.8639683765717892
  0.9071252947722485  0.9474000514786215  0.6360316234282108
  0.0928747052277513  0.0525999485213786  0.3639683765717892
  0.9071252947722485  0.0525999485213786  0.3639683765717892
  0.0928747052277513  0.9474000514786215  0.6360316234282108
  0.0928747052277513  0.4474000514786214  0.8639683765717892
  0.9071252947722485  0.5525999485213785  0.1360316234282109
  0.5928747052277515  0.0525999485213787  0.1360316234282109
  0.4071252947722487  0.9474000514786215  0.8639683765717892
  0.4071252947722487  0.4474000514786214  0.6360316234282108
  0.5928747052277515  0.5525999485213785  0.3639683765717892
  0.4071252947722487  0.5525999485213785  0.3639683765717892
  0.5928747052277515  0.4474000514786214  0.6360316234282108
  0.5928747052277515  0.9474000514786215  0.8639683765717892
  0.4071252947722487  0.0525999485213786  0.1360316234282109
  0.0465783579862126  0.2966763186271825  0.2107162766386747
  0.9534216420137875  0.7033236813728174  0.7892837233613252
  0.9534216420137875  0.2033236813728175  0.7107162766386748
  0.0465783579862126  0.7966763186271826  0.2892837233613254
  0.9534216420137875  0.7966763186271826  0.2892837233613254
  0.0465783579862126  0.2033236813728175  0.7107162766386748
  0.0465783579862126  0.7033236813728174  0.7892837233613252
  0.9534216420137875  0.2966763186271825  0.2107162766386747
  0.5465783579862125  0.7966763186271826  0.2107162766386747
  0.4534216420137875  0.2033236813728175  0.7892837233613252
  0.4534216420137875  0.7033236813728174  0.7107162766386748
  0.5465783579862125  0.2966763186271825  0.2892837233613254
  0.4534216420137875  0.2966763186271825  0.2892837233613254
  0.5465783579862125  0.7033236813728174  0.7107162766386748
  0.5465783579862125  0.2033236813728175  0.7892837233613252
  0.4534216420137875  0.7966763186271826  0.2107162766386747
  0.1315513268954827  0.6646849865617811  0.9687251170959693
  0.8684486731045173  0.3353150134382187  0.0312748829040306
  0.8684486731045173  0.8353150134382189  0.4687251170959694
  0.1315513268954827  0.1646849865617812  0.5312748829040307
  0.8684486731045173  0.1646849865617812  0.5312748829040307
  0.1315513268954827  0.8353150134382189  0.4687251170959694
  0.1315513268954827  0.3353150134382187  0.0312748829040306
  0.8684486731045173  0.6646849865617811  0.9687251170959693
  0.6315513268954827  0.1646849865617812  0.9687251170959693
  0.3684486731045174  0.8353150134382189  0.0312748829040306
  0.3684486731045174  0.3353150134382188  0.4687251170959694
  0.6315513268954827  0.6646849865617811  0.5312748829040307
  0.3684486731045174  0.6646849865617811  0.5312748829040307
  0.6315513268954827  0.3353150134382188  0.4687251170959694
  0.6315513268954827  0.8353150134382189  0.0312748829040306
  0.3684486731045174  0.1646849865617812  0.9687251170959693
  0.2193465041586022  0.6572785030792984  0.0244980134541110
  0.7806534958413980  0.3427214969207016  0.9755019865458889
  0.7806534958413980  0.8427214969207016  0.5244980134541111
  0.2193465041586022  0.1572785030792984  0.4755019865458889
  0.7806534958413980  0.1572785030792984  0.4755019865458889
  0.2193465041586022  0.8427214969207016  0.5244980134541111
  0.2193465041586022  0.3427214969207015  0.9755019865458889
  0.7806534958413980  0.6572785030792984  0.0244980134541110
  0.7193465041586020  0.1572785030792984  0.0244980134541110
  0.2806534958413979  0.8427214969207016  0.9755019865458889
  0.2806534958413979  0.3427214969207015  0.5244980134541111
  0.7193465041586020  0.6572785030792984  0.4755019865458889
  0.2806534958413979  0.6572785030792984  0.4755019865458889
  0.7193465041586020  0.3427214969207015  0.5244980134541111
  0.7193465041586020  0.8427214969207016  0.9755019865458889
  0.2806534958413979  0.1572785030792984  0.0244980134541110
  0.2463251567268544  0.8590028025330672  0.1579678792446813
  0.7536748432731455  0.1409971974669327  0.8420321207553187
  0.7536748432731455  0.6409971974669328  0.6579678792446813
  0.2463251567268544  0.3590028025330673  0.3420321207553187
  0.7536748432731455  0.3590028025330673  0.3420321207553187
  0.2463251567268544  0.6409971974669328  0.6579678792446813
  0.2463251567268544  0.1409971974669327  0.8420321207553187
  0.7536748432731455  0.8590028025330672  0.1579678792446813
  0.7463251567268545  0.3590028025330673  0.1579678792446813
  0.2536748432731456  0.6409971974669328  0.8420321207553187
  0.2536748432731456  0.1409971974669327  0.6579678792446813
  0.7463251567268545  0.8590028025330672  0.3420321207553187
  0.2536748432731456  0.8590028025330672  0.3420321207553187
  0.7463251567268545  0.1409971974669327  0.6579678792446813
  0.7463251567268545  0.6409971974669328  0.8420321207553187
  0.2536748432731456  0.3590028025330673  0.1579678792446813
  0.1834865240193321  0.0646756219679366  0.2381873441383325
  0.8165134759806678  0.9353243780320635  0.7618126558616672
  0.8165134759806678  0.4353243780320634  0.7381873441383328
  0.1834865240193321  0.5646756219679365  0.2618126558616675
  0.8165134759806678  0.5646756219679365  0.2618126558616675
  0.1834865240193321  0.4353243780320634  0.7381873441383328
  0.1834865240193321  0.9353243780320635  0.7618126558616672
  0.8165134759806678  0.0646756219679366  0.2381873441383325
  0.6834865240193322  0.5646756219679365  0.2381873441383325
  0.3165134759806680  0.4353243780320634  0.7618126558616672
  0.3165134759806680  0.9353243780320635  0.7381873441383328
  0.6834865240193322  0.0646756219679366  0.2618126558616675
  0.3165134759806680  0.0646756219679366  0.2618126558616675
  0.6834865240193322  0.9353243780320635  0.7381873441383328
  0.6834865240193322  0.4353243780320634  0.7618126558616672
  0.3165134759806680  0.5646756219679365  0.2381873441383325
  0.0952747345651068  0.0636378932418233  0.1838163416478152
  0.9047252654348934  0.9363621067581767  0.8161836583521846
  0.9047252654348934  0.4363621067581766  0.6838163416478154
  0.0952747345651068  0.5636378932418233  0.3161836583521846
  0.9047252654348934  0.5636378932418233  0.3161836583521846
  0.0952747345651068  0.4363621067581766  0.6838163416478154
  0.0952747345651068  0.9363621067581767  0.8161836583521846
  0.9047252654348934  0.0636378932418233  0.1838163416478152
  0.5952747345651066  0.5636378932418233  0.1838163416478152
  0.4047252654348932  0.4363621067581766  0.8161836583521846
  0.4047252654348932  0.9363621067581767  0.6838163416478154
  0.5952747345651066  0.0636378932418233  0.3161836583521846
  0.4047252654348932  0.0636378932418233  0.3161836583521846
  0.5952747345651066  0.9363621067581767  0.6838163416478154
  0.5952747345651066  0.4363621067581766  0.8161836583521846
  0.4047252654348932  0.5636378932418233  0.1838163416478152
 
  0.00000000E+00  0.00000000E+00  0.00000000E+00
  0.00000000E+00  0.00000000E+00  0.00000000E+00
  0.00000000E+00  0.00000000E+00  0.00000000E+00
  0.00000000E+00  0.00000000E+00  0.00000000E+00
  0.00000000E+00  0.00000000E+00  0.00000000E+00
  0.00000000E+00  0.00000000E+00  0.00000000E+00
  0.00000000E+00  0.00000000E+00  0.00000000E+00
  0.00000000E+00  0.00000000E+00  0.00000000E+00
  0.00000000E+00  0.00000000E+00  0.00000000E+00
  0.00000000E+00  0.00000000E+00  0.00000000E+00
  0.00000000E+00  0.00000000E+00  0.00000000E+00
  0.00000000E+00  0.00000000E+00  0.00000000E+00
  0.00000000E+00  0.00000000E+00  0.00000000E+00
  0.00000000E+00  0.00000000E+00  0.00000000E+00
  0.00000000E+00  0.00000000E+00  0.00000000E+00
  0.00000000E+00  0.00000000E+00  0.00000000E+00
  0.00000000E+00  0.00000000E+00  0.00000000E+00
  0.00000000E+00  0.00000000E+00  0.00000000E+00
  0.00000000E+00  0.00000000E+00  0.00000000E+00
  0.00000000E+00  0.00000000E+00  0.00000000E+00
  0.00000000E+00  0.00000000E+00  0.00000000E+00
  0.00000000E+00  0.00000000E+00  0.00000000E+00
  0.00000000E+00  0.00000000E+00  0.00000000E+00
  0.00000000E+00  0.00000000E+00  0.00000000E+00
  0.00000000E+00  0.00000000E+00  0.00000000E+00
  0.00000000E+00  0.00000000E+00  0.00000000E+00
  0.00000000E+00  0.00000000E+00  0.00000000E+00
  0.00000000E+00  0.00000000E+00  0.00000000E+00
  0.00000000E+00  0.00000000E+00  0.00000000E+00
  0.00000000E+00  0.00000000E+00  0.00000000E+00
  0.00000000E+00  0.00000000E+00  0.00000000E+00
  0.00000000E+00  0.00000000E+00  0.00000000E+00
  0.00000000E+00  0.00000000E+00  0.00000000E+00
  0.00000000E+00  0.00000000E+00  0.00000000E+00
  0.00000000E+00  0.00000000E+00  0.00000000E+00
  0.00000000E+00  0.00000000E+00  0.00000000E+00
  0.00000000E+00  0.00000000E+00  0.00000000E+00
  0.00000000E+00  0.00000000E+00  0.00000000E+00
  0.00000000E+00  0.00000000E+00  0.00000000E+00
  0.00000000E+00  0.00000000E+00  0.00000000E+00
  0.00000000E+00  0.00000000E+00  0.00000000E+00
  0.00000000E+00  0.00000000E+00  0.00000000E+00
  0.00000000E+00  0.00000000E+00  0.00000000E+00
  0.00000000E+00  0.00000000E+00  0.00000000E+00
  0.00000000E+00  0.00000000E+00  0.00000000E+00
  0.00000000E+00  0.00000000E+00  0.00000000E+00
  0.00000000E+00  0.00000000E+00  0.00000000E+00
  0.00000000E+00  0.00000000E+00  0.00000000E+00
  0.00000000E+00  0.00000000E+00  0.00000000E+00
  0.00000000E+00  0.00000000E+00  0.00000000E+00
  0.00000000E+00  0.00000000E+00  0.00000000E+00
  0.00000000E+00  0.00000000E+00  0.00000000E+00
  0.00000000E+00  0.00000000E+00  0.00000000E+00
  0.00000000E+00  0.00000000E+00  0.00000000E+00
  0.00000000E+00  0.00000000E+00  0.00000000E+00
  0.00000000E+00  0.00000000E+00  0.00000000E+00
  0.00000000E+00  0.00000000E+00  0.00000000E+00
  0.00000000E+00  0.00000000E+00  0.00000000E+00
  0.00000000E+00  0.00000000E+00  0.00000000E+00
  0.00000000E+00  0.00000000E+00  0.00000000E+00
  0.00000000E+00  0.00000000E+00  0.00000000E+00
  0.00000000E+00  0.00000000E+00  0.00000000E+00
  0.00000000E+00  0.00000000E+00  0.00000000E+00
  0.00000000E+00  0.00000000E+00  0.00000000E+00
  0.00000000E+00  0.00000000E+00  0.00000000E+00
  0.00000000E+00  0.00000000E+00  0.00000000E+00
  0.00000000E+00  0.00000000E+00  0.00000000E+00
  0.00000000E+00  0.00000000E+00  0.00000000E+00
  0.00000000E+00  0.00000000E+00  0.00000000E+00
  0.00000000E+00  0.00000000E+00  0.00000000E+00
  0.00000000E+00  0.00000000E+00  0.00000000E+00
  0.00000000E+00  0.00000000E+00  0.00000000E+00
  0.00000000E+00  0.00000000E+00  0.00000000E+00
  0.00000000E+00  0.00000000E+00  0.00000000E+00
  0.00000000E+00  0.00000000E+00  0.00000000E+00
  0.00000000E+00  0.00000000E+00  0.00000000E+00
  0.00000000E+00  0.00000000E+00  0.00000000E+00
  0.00000000E+00  0.00000000E+00  0.00000000E+00
  0.00000000E+00  0.00000000E+00  0.00000000E+00
  0.00000000E+00  0.00000000E+00  0.00000000E+00
  0.00000000E+00  0.00000000E+00  0.00000000E+00
  0.00000000E+00  0.00000000E+00  0.00000000E+00
  0.00000000E+00  0.00000000E+00  0.00000000E+00
  0.00000000E+00  0.00000000E+00  0.00000000E+00
  0.00000000E+00  0.00000000E+00  0.00000000E+00
  0.00000000E+00  0.00000000E+00  0.00000000E+00
  0.00000000E+00  0.00000000E+00  0.00000000E+00
  0.00000000E+00  0.00000000E+00  0.00000000E+00
  0.00000000E+00  0.00000000E+00  0.00000000E+00
  0.00000000E+00  0.00000000E+00  0.00000000E+00
  0.00000000E+00  0.00000000E+00  0.00000000E+00
  0.00000000E+00  0.00000000E+00  0.00000000E+00
  0.00000000E+00  0.00000000E+00  0.00000000E+00
  0.00000000E+00  0.00000000E+00  0.00000000E+00
  0.00000000E+00  0.00000000E+00  0.00000000E+00
  0.00000000E+00  0.00000000E+00  0.00000000E+00
  0.00000000E+00  0.00000000E+00  0.00000000E+00
  0.00000000E+00  0.00000000E+00  0.00000000E+00
  0.00000000E+00  0.00000000E+00  0.00000000E+00
  0.00000000E+00  0.00000000E+00  0.00000000E+00
  0.00000000E+00  0.00000000E+00  0.00000000E+00
  0.00000000E+00  0.00000000E+00  0.00000000E+00
  0.00000000E+00  0.00000000E+00  0.00000000E+00
  0.00000000E+00  0.00000000E+00  0.00000000E+00
  0.00000000E+00  0.00000000E+00  0.00000000E+00
  0.00000000E+00  0.00000000E+00  0.00000000E+00
  0.00000000E+00  0.00000000E+00  0.00000000E+00
  0.00000000E+00  0.00000000E+00  0.00000000E+00
  0.00000000E+00  0.00000000E+00  0.00000000E+00
  0.00000000E+00  0.00000000E+00  0.00000000E+00
  0.00000000E+00  0.00000000E+00  0.00000000E+00
  0.00000000E+00  0.00000000E+00  0.00000000E+00
  0.00000000E+00  0.00000000E+00  0.00000000E+00
  0.00000000E+00  0.00000000E+00  0.00000000E+00
  0.00000000E+00  0.00000000E+00  0.00000000E+00
  0.00000000E+00  0.00000000E+00  0.00000000E+00
  0.00000000E+00  0.00000000E+00  0.00000000E+00
  0.00000000E+00  0.00000000E+00  0.00000000E+00
  0.00000000E+00  0.00000000E+00  0.00000000E+00
  0.00000000E+00  0.00000000E+00  0.00000000E+00
  0.00000000E+00  0.00000000E+00  0.00000000E+00
  0.00000000E+00  0.00000000E+00  0.00000000E+00
  0.00000000E+00  0.00000000E+00  0.00000000E+00
  0.00000000E+00  0.00000000E+00  0.00000000E+00
  0.00000000E+00  0.00000000E+00  0.00000000E+00
  0.00000000E+00  0.00000000E+00  0.00000000E+00
  0.00000000E+00  0.00000000E+00  0.00000000E+00
  0.00000000E+00  0.00000000E+00  0.00000000E+00
  0.00000000E+00  0.00000000E+00  0.00000000E+00
  0.00000000E+00  0.00000000E+00  0.00000000E+00
  0.00000000E+00  0.00000000E+00  0.00000000E+00
  0.00000000E+00  0.00000000E+00  0.00000000E+00
  0.00000000E+00  0.00000000E+00  0.00000000E+00
  0.00000000E+00  0.00000000E+00  0.00000000E+00
  0.00000000E+00  0.00000000E+00  0.00000000E+00
  0.00000000E+00  0.00000000E+00  0.00000000E+00
  0.00000000E+00  0.00000000E+00  0.00000000E+00
  0.00000000E+00  0.00000000E+00  0.00000000E+00
  0.00000000E+00  0.00000000E+00  0.00000000E+00
  0.00000000E+00  0.00000000E+00  0.00000000E+00
  0.00000000E+00  0.00000000E+00  0.00000000E+00
  0.00000000E+00  0.00000000E+00  0.00000000E+00
  0.00000000E+00  0.00000000E+00  0.00000000E+00
  0.00000000E+00  0.00000000E+00  0.00000000E+00
  0.00000000E+00  0.00000000E+00  0.00000000E+00
  0.00000000E+00  0.00000000E+00  0.00000000E+00
  0.00000000E+00  0.00000000E+00  0.00000000E+00
  0.00000000E+00  0.00000000E+00  0.00000000E+00
  0.00000000E+00  0.00000000E+00  0.00000000E+00
  0.00000000E+00  0.00000000E+00  0.00000000E+00
  0.00000000E+00  0.00000000E+00  0.00000000E+00
  0.00000000E+00  0.00000000E+00  0.00000000E+00
  0.00000000E+00  0.00000000E+00  0.00000000E+00
  0.00000000E+00  0.00000000E+00  0.00000000E+00
  0.00000000E+00  0.00000000E+00  0.00000000E+00
  0.00000000E+00  0.00000000E+00  0.00000000E+00
  0.00000000E+00  0.00000000E+00  0.00000000E+00
  0.00000000E+00  0.00000000E+00  0.00000000E+00
  0.00000000E+00  0.00000000E+00  0.00000000E+00
  0.00000000E+00  0.00000000E+00  0.00000000E+00
  0.00000000E+00  0.00000000E+00  0.00000000E+00
  0.00000000E+00  0.00000000E+00  0.00000000E+00
  0.00000000E+00  0.00000000E+00  0.00000000E+00
  0.00000000E+00  0.00000000E+00  0.00000000E+00
  0.00000000E+00  0.00000000E+00  0.00000000E+00
  0.00000000E+00  0.00000000E+00  0.00000000E+00
  0.00000000E+00  0.00000000E+00  0.00000000E+00
  0.00000000E+00  0.00000000E+00  0.00000000E+00
  0.00000000E+00  0.00000000E+00  0.00000000E+00
  0.00000000E+00  0.00000000E+00  0.00000000E+00
  0.00000000E+00  0.00000000E+00  0.00000000E+00
  0.00000000E+00  0.00000000E+00  0.00000000E+00
  0.00000000E+00  0.00000000E+00  0.00000000E+00
  0.00000000E+00  0.00000000E+00  0.00000000E+00
  0.00000000E+00  0.00000000E+00  0.00000000E+00
  0.00000000E+00  0.00000000E+00  0.00000000E+00
  0.00000000E+00  0.00000000E+00  0.00000000E+00
  0.00000000E+00  0.00000000E+00  0.00000000E+00
  0.00000000E+00  0.00000000E+00  0.00000000E+00
  0.00000000E+00  0.00000000E+00  0.00000000E+00
  0.00000000E+00  0.00000000E+00  0.00000000E+00
  0.00000000E+00  0.00000000E+00  0.00000000E+00
  0.00000000E+00  0.00000000E+00  0.00000000E+00
  0.00000000E+00  0.00000000E+00  0.00000000E+00
  0.00000000E+00  0.00000000E+00  0.00000000E+00
  0.00000000E+00  0.00000000E+00  0.00000000E+00
  0.00000000E+00  0.00000000E+00  0.00000000E+00
  0.00000000E+00  0.00000000E+00  0.00000000E+00
  0.00000000E+00  0.00000000E+00  0.00000000E+00
  0.00000000E+00  0.00000000E+00  0.00000000E+00
  0.00000000E+00  0.00000000E+00  0.00000000E+00
  0.00000000E+00  0.00000000E+00  0.00000000E+00
  0.00000000E+00  0.00000000E+00  0.00000000E+00
  0.00000000E+00  0.00000000E+00  0.00000000E+00
  0.00000000E+00  0.00000000E+00  0.00000000E+00
  0.00000000E+00  0.00000000E+00  0.00000000E+00
  0.00000000E+00  0.00000000E+00  0.00000000E+00
  0.00000000E+00  0.00000000E+00  0.00000000E+00
  0.00000000E+00  0.00000000E+00  0.00000000E+00
  0.00000000E+00  0.00000000E+00  0.00000000E+00
  0.00000000E+00  0.00000000E+00  0.00000000E+00
  0.00000000E+00  0.00000000E+00  0.00000000E+00
  0.00000000E+00  0.00000000E+00  0.00000000E+00
  0.00000000E+00  0.00000000E+00  0.00000000E+00
  0.00000000E+00  0.00000000E+00  0.00000000E+00
  0.00000000E+00  0.00000000E+00  0.00000000E+00
  0.00000000E+00  0.00000000E+00  0.00000000E+00
  0.00000000E+00  0.00000000E+00  0.00000000E+00
  0.00000000E+00  0.00000000E+00  0.00000000E+00
  0.00000000E+00  0.00000000E+00  0.00000000E+00
  0.00000000E+00  0.00000000E+00  0.00000000E+00
  0.00000000E+00  0.00000000E+00  0.00000000E+00
  0.00000000E+00  0.00000000E+00  0.00000000E+00
  0.00000000E+00  0.00000000E+00  0.00000000E+00
  0.00000000E+00  0.00000000E+00  0.00000000E+00
  0.00000000E+00  0.00000000E+00  0.00000000E+00
  0.00000000E+00  0.00000000E+00  0.00000000E+00
  0.00000000E+00  0.00000000E+00  0.00000000E+00
  0.00000000E+00  0.00000000E+00  0.00000000E+00
  0.00000000E+00  0.00000000E+00  0.00000000E+00
  0.00000000E+00  0.00000000E+00  0.00000000E+00
  0.00000000E+00  0.00000000E+00  0.00000000E+00
  0.00000000E+00  0.00000000E+00  0.00000000E+00
  0.00000000E+00  0.00000000E+00  0.00000000E+00
  0.00000000E+00  0.00000000E+00  0.00000000E+00
  0.00000000E+00  0.00000000E+00  0.00000000E+00
  0.00000000E+00  0.00000000E+00  0.00000000E+00
  0.00000000E+00  0.00000000E+00  0.00000000E+00
  0.00000000E+00  0.00000000E+00  0.00000000E+00
  0.00000000E+00  0.00000000E+00  0.00000000E+00
  0.00000000E+00  0.00000000E+00  0.00000000E+00
  0.00000000E+00  0.00000000E+00  0.00000000E+00
  0.00000000E+00  0.00000000E+00  0.00000000E+00
  0.00000000E+00  0.00000000E+00  0.00000000E+00
  0.00000000E+00  0.00000000E+00  0.00000000E+00
  0.00000000E+00  0.00000000E+00  0.00000000E+00
  0.00000000E+00  0.00000000E+00  0.00000000E+00
  0.00000000E+00  0.00000000E+00  0.00000000E+00
  0.00000000E+00  0.00000000E+00  0.00000000E+00
  0.00000000E+00  0.00000000E+00  0.00000000E+00
  0.00000000E+00  0.00000000E+00  0.00000000E+00
  0.00000000E+00  0.00000000E+00  0.00000000E+00
  0.00000000E+00  0.00000000E+00  0.00000000E+00
  0.00000000E+00  0.00000000E+00  0.00000000E+00
  0.00000000E+00  0.00000000E+00  0.00000000E+00
  0.00000000E+00  0.00000000E+00  0.00000000E+00
  0.00000000E+00  0.00000000E+00  0.00000000E+00
  0.00000000E+00  0.00000000E+00  0.00000000E+00
  0.00000000E+00  0.00000000E+00  0.00000000E+00
  0.00000000E+00  0.00000000E+00  0.00000000E+00
  0.00000000E+00  0.00000000E+00  0.00000000E+00
  0.00000000E+00  0.00000000E+00  0.00000000E+00
  0.00000000E+00  0.00000000E+00  0.00000000E+00
  0.00000000E+00  0.00000000E+00  0.00000000E+00
  0.00000000E+00  0.00000000E+00  0.00000000E+00
  0.00000000E+00  0.00000000E+00  0.00000000E+00
  0.00000000E+00  0.00000000E+00  0.00000000E+00