INCAR created by Atomic Simulation Environment
 ENCUT = 520.000000
 POTIM = 0.200000
 SIGMA = 0.050000
 SMASS = 0.000000
 TEBEG = 500.000000
 TEEND = 500.000000
 EDIFF = 1.00e-06
 ALGO = Fast
 GGA = PE
 PREC = Normal
 IBRION = 0
 ISIF = 2
 ISMEAR = 0
 ISYM = 0
 NSW = 25000
 NWRITE = 1
 NCORE = 16
 MDALGO = 2
 LCHARG = .FALSE.
 LWAVE = .FALSE.
 LREAL = Auto
