 C  H                                   
   1.00000000000000     
    26.9889062800173996    0.0000000000000000    0.0000000000000000
     0.0000000000000000    7.2151645311705872   -0.0000000000000000
     0.0000000000000000    0.0000000000000000   14.3205446489584407
   C    H 
   168   112
Direct
  0.0273933260161579  0.0000000000000000  0.0000000000000000
  0.9726066739838420  0.0000000000000000  0.0000000000000000
  0.9726066739838419  0.5000000000000000  0.5000000000000000
  0.0273933260161579  0.5000000000000000  0.5000000000000000
  0.5273933260161580  0.5000000000000000  0.0000000000000000
  0.4726066739838419  0.5000000000000000  0.0000000000000000
  0.4726066739838419  0.0000000000000000  0.5000000000000000
  0.5273933260161581  0.0000000000000000  0.5000000000000000
  0.0531174421073029  0.8562339893426120  0.0486593539037234
  0.9468825578926974  0.1437660106573880  0.9513406460962767
  0.9468825578926974  0.6437660106573880  0.5486593539037233
  0.0531174421073029  0.3562339893426119  0.4513406460962766
  0.9468825578926974  0.3562339893426119  0.4513406460962766
  0.0531174421073029  0.6437660106573880  0.5486593539037233
  0.0531174421073029  0.1437660106573880  0.9513406460962767
  0.9468825578926974  0.8562339893426120  0.0486593539037234
  0.5531174421073026  0.3562339893426119  0.0486593539037234
  0.4468825578926971  0.6437660106573880  0.9513406460962767
  0.4468825578926971  0.1437660106573880  0.5486593539037233
  0.5531174421073026  0.8562339893426120  0.4513406460962766
  0.4468825578926971  0.8562339893426120  0.4513406460962766
  0.5531174421073026  0.1437660106573880  0.5486593539037233
  0.5531174421073026  0.6437660106573880  0.9513406460962767
  0.4468825578926971  0.3562339893426119  0.0486593539037234
  0.0268751399641987  0.7051244561089398  0.0871593799614550
  0.9731248600358015  0.2948755438910601  0.9128406200385450
  0.9731248600358015  0.7948755438910602  0.5871593799614550
  0.0268751399641987  0.2051244561089398  0.4128406200385451
  0.9731248600358015  0.2051244561089399  0.4128406200385451
  0.0268751399641987  0.7948755438910602  0.5871593799614550
  0.0268751399641987  0.2948755438910601  0.9128406200385450
  0.9731248600358015  0.7051244561089398  0.0871593799614550
  0.5268751399641985  0.2051244561089398  0.0871593799614550
  0.4731248600358013  0.7948755438910602  0.9128406200385450
  0.4731248600358013  0.2948755438910601  0.5871593799614550
  0.5268751399641985  0.7051244561089398  0.4128406200385451
  0.4731248600358013  0.7051244561089398  0.4128406200385451
  0.5268751399641985  0.2948755438910601  0.5871593799614550
  0.5268751399641985  0.7948755438910602  0.9128406200385450
  0.4731248600358013  0.2051244561089399  0.0871593799614550
  0.0519019246346842  0.5547910491824343  0.1332372511718731
  0.9480980753653157  0.4452089508175585  0.8667627488281270
  0.9480980753653157  0.9452089508175657  0.6332372511718730
  0.0519019246346842  0.0547910491824415  0.3667627488281269
  0.9480980753653157  0.0547910491824415  0.3667627488281269
  0.0519019246346842  0.9452089508175657  0.6332372511718730
  0.0519019246346842  0.4452089508175585  0.8667627488281270
  0.9480980753653157  0.5547910491824343  0.1332372511718731
  0.5519019246346843  0.0547910491824415  0.1332372511718731
  0.4480980753653158  0.9452089508175656  0.8667627488281270
  0.4480980753653159  0.4452089508175585  0.6332372511718730
  0.5519019246346843  0.5547910491824343  0.3667627488281269
  0.4480980753653159  0.5547910491824343  0.3667627488281269
  0.5519019246346843  0.4452089508175583  0.6332372511718730
  0.5519019246346843  0.9452089508175657  0.8667627488281270
  0.4480980753653159  0.0547910491824415  0.1332372511718731
  0.0263594866160316  0.4125243268103729  0.1747073935974990
  0.9736405133839684  0.5874756731896268  0.8252926064025012
  0.9736405133839684  0.0874756731896271  0.6747073935974988
  0.0263594866160316  0.9125243268103732  0.3252926064025010
  0.9736405133839684  0.9125243268103732  0.3252926064025010
  0.0263594866160316  0.0874756731896271  0.6747073935974988
  0.0263594866160316  0.5874756731896268  0.8252926064025012
  0.9736405133839684  0.4125243268103729  0.1747073935974990
  0.5263594866160316  0.9125243268103732  0.1747073935974990
  0.4736405133839684  0.0874756731896271  0.8252926064025012
  0.4736405133839684  0.5874756731896268  0.6747073935974988
  0.5263594866160316  0.4125243268103729  0.3252926064025010
  0.4736405133839684  0.4125243268103729  0.3252926064025010
  0.5263594866160316  0.5874756731896269  0.6747073935974988
  0.5263594866160316  0.0874756731896271  0.8252926064025012
  0.4736405133839684  0.9125243268103732  0.1747073935974990
  0.1072530622470773  0.8659101491078319  0.0722494915419969
  0.8927469377529228  0.1340898508921751  0.9277505084580033
  0.8927469377529228  0.6340898508921681  0.5722494915419967
  0.1072530622470773  0.3659101491078250  0.4277505084580031
  0.8927469377529228  0.3659101491078250  0.4277505084580031
  0.1072530622470773  0.6340898508921681  0.5722494915419967
  0.1072530622470773  0.1340898508921751  0.9277505084580033
  0.8927469377529228  0.8659101491078319  0.0722494915419969
  0.6072530622470772  0.3659101491078250  0.0722494915419969
  0.3927469377529226  0.6340898508921681  0.9277505084580033
  0.3927469377529226  0.1340898508921751  0.5722494915419967
  0.6072530622470772  0.8659101491078319  0.4277505084580031
  0.3927469377529226  0.8659101491078319  0.4277505084580031
  0.6072530622470772  0.1340898508921751  0.5722494915419967
  0.6072530622470772  0.6340898508921681  0.9277505084580033
  0.3927469377529226  0.3659101491078250  0.0722494915419969
  0.1425283940703118  0.7524664765335002  0.0282915463723749
  0.8574716059296884  0.2475335234665000  0.9717084536276251
  0.8574716059296884  0.7475335234664998  0.5282915463723749
  0.1425283940703118  0.2524664765335000  0.4717084536276251
  0.8574716059296884  0.2524664765335000  0.4717084536276251
  0.1425283940703118  0.7475335234664998  0.5282915463723749
  0.1425283940703118  0.2475335234665000  0.9717084536276251
  0.8574716059296884  0.7524664765335002  0.0282915463723749
  0.6425283940703116  0.2524664765335000  0.0282915463723749
  0.3574716059296882  0.7475335234664998  0.9717084536276251
  0.3574716059296882  0.2475335234665000  0.5282915463723749
  0.6425283940703116  0.7524664765335002  0.4717084536276252
  0.3574716059296882  0.7524664765335002  0.4717084536276252
  0.6425283940703116  0.2475335234665000  0.5282915463723749
  0.6425283940703116  0.7475335234664998  0.9717084536276251
  0.3574716059296882  0.2524664765335000  0.0282915463723749
  0.1916442749019714  0.7494284244471097  0.0590900293859167
  0.8083557250980284  0.2505715755528904  0.9409099706140833
  0.8083557250980284  0.7505715755528904  0.5590900293859167
  0.1916442749019714  0.2494284244471094  0.4409099706140833
  0.8083557250980284  0.2494284244471095  0.4409099706140833
  0.1916442749019714  0.7505715755528904  0.5590900293859167
  0.1916442749019714  0.2505715755528904  0.9409099706140833
  0.8083557250980284  0.7494284244471097  0.0590900293859167
  0.6916442749019716  0.2494284244471094  0.0590900293859167
  0.3083557250980285  0.7505715755528903  0.9409099706140833
  0.3083557250980286  0.2505715755528904  0.5590900293859167
  0.6916442749019716  0.7494284244471096  0.4409099706140833
  0.3083557250980285  0.7494284244471096  0.4409099706140833
  0.6916442749019716  0.2505715755528904  0.5590900293859167
  0.6916442749019716  0.7505715755528903  0.9409099706140833
  0.3083557250980285  0.2494284244471094  0.0590900293859167
  0.2066290245587058  0.8612484442128848  0.1339691337111325
  0.7933709754412943  0.1387515557871152  0.8660308662888747
  0.7933709754412943  0.6387515557871152  0.6339691337111253
  0.2066290245587058  0.3612484442128847  0.3660308662888745
  0.7933709754412943  0.3612484442128847  0.3660308662888745
  0.2066290245587058  0.6387515557871152  0.6339691337111253
  0.2066290245587058  0.1387515557871152  0.8660308662888747
  0.7933709754412943  0.8612484442128848  0.1339691337111325
  0.7066290245587057  0.3612484442128847  0.1339691337111325
  0.2933709754412943  0.6387515557871152  0.8660308662888747
  0.2933709754412943  0.1387515557871152  0.6339691337111253
  0.7066290245587057  0.8612484442128848  0.3660308662888745
  0.2933709754412943  0.8612484442128848  0.3660308662888745
  0.7066290245587057  0.1387515557871152  0.6339691337111253
  0.7066290245587057  0.6387515557871152  0.8660308662888747
  0.2933709754412943  0.3612484442128847  0.1339691337111325
  0.1718037079936943  0.9749919687393013  0.1784071419828118
  0.8281962920063055  0.0250080312606987  0.8215928580171882
  0.8281962920063055  0.5250080312606987  0.6784071419828118
  0.1718037079936943  0.4749919687393014  0.3215928580171882
  0.8281962920063055  0.4749919687393013  0.3215928580171882
  0.1718037079936943  0.5250080312606987  0.6784071419828118
  0.1718037079936943  0.0250080312606987  0.8215928580171882
  0.8281962920063055  0.9749919687393013  0.1784071419828118
  0.6718037079936945  0.4749919687393013  0.1784071419828118
  0.3281962920063057  0.5250080312606987  0.8215928580171882
  0.3281962920063057  0.0250080312606987  0.6784071419828118
  0.6718037079936945  0.9749919687393013  0.3215928580171882
  0.3281962920063057  0.9749919687393013  0.3215928580171882
  0.6718037079936945  0.0250080312606987  0.6784071419828118
  0.6718037079936945  0.5250080312606987  0.8215928580171882
  0.3281962920063057  0.4749919687393013  0.1784071419828118
  0.1225097112026333  0.9758959286213996  0.1479909094353264
  0.8774902887973666  0.0241040713786005  0.8520090905646731
  0.8774902887973666  0.5241040713786003  0.6479909094353269
  0.1225097112026333  0.4758959286213995  0.3520090905646735
  0.8774902887973666  0.4758959286213995  0.3520090905646735
  0.1225097112026333  0.5241040713786003  0.6479909094353269
  0.1225097112026333  0.0241040713786005  0.8520090905646731
  0.8774902887973666  0.9758959286213996  0.1479909094353264
  0.6225097112026334  0.4758959286213996  0.1479909094353264
  0.3774902887973666  0.5241040713786003  0.8520090905646731
  0.3774902887973666  0.0241040713786005  0.6479909094353269
  0.6225097112026334  0.9758959286213997  0.3520090905646735
  0.3774902887973666  0.9758959286213997  0.3520090905646734
  0.6225097112026334  0.0241040713786005  0.6479909094353269
  0.6225097112026334  0.5241040713786004  0.8520090905646731
  0.3774902887973666  0.4758959286213996  0.1479909094353264
  0.0921944771098314  0.5547949400232657  0.1353916383366689
  0.9078055228901686  0.4452050599767343  0.8646083616633313
  0.9078055228901686  0.9452050599767343  0.6353916383366687
  0.0921944771098314  0.0547949400232657  0.3646083616633312
  0.9078055228901686  0.0547949400232657  0.3646083616633312
  0.0921944771098314  0.9452050599767343  0.6353916383366687
  0.0921944771098314  0.4452050599767343  0.8646083616633313
  0.9078055228901686  0.5547949400232657  0.1353916383366689
  0.5921944771098314  0.0547949400232657  0.1353916383366689
  0.4078055228901686  0.9452050599767343  0.8646083616633313
  0.4078055228901686  0.4452050599767343  0.6353916383366687
  0.5921944771098314  0.5547949400232657  0.3646083616633312
  0.4078055228901686  0.5547949400232657  0.3646083616633312
  0.5921944771098314  0.4452050599767343  0.6353916383366687
  0.5921944771098314  0.9452050599767343  0.8646083616633313
  0.4078055228901686  0.0547949400232657  0.1353916383366689
  0.0462411568064784  0.3005909364966041  0.2093322066205635
  0.9537588431935216  0.6994090635033956  0.7906677933794364
  0.9537588431935216  0.1994090635033958  0.7093322066205636
  0.0462411568064784  0.8005909364966044  0.2906677933794367
  0.9537588431935216  0.8005909364966044  0.2906677933794367
  0.0462411568064784  0.1994090635033958  0.7093322066205636
  0.0462411568064784  0.6994090635033956  0.7906677933794364
  0.9537588431935216  0.3005909364966041  0.2093322066205635
  0.5462411568064784  0.8005909364966044  0.2093322066205635
  0.4537588431935216  0.1994090635033958  0.7906677933794364
  0.4537588431935216  0.6994090635033956  0.7093322066205636
  0.5462411568064784  0.3005909364966041  0.2906677933794367
  0.4537588431935216  0.3005909364966041  0.2906677933794367
  0.5462411568064784  0.6994090635033956  0.7093322066205636
  0.5462411568064784  0.1994090635033958  0.7906677933794364
  0.4537588431935216  0.8005909364966044  0.2093322066205635
  0.1312401965067379  0.6660848316965010  0.9695090541883387
  0.8687598034932621  0.3339151683034990  0.0304909458116614
  0.8687598034932621  0.8339151683034990  0.4695090541883386
  0.1312401965067379  0.1660848316965011  0.5304909458116613
  0.8687598034932621  0.1660848316965011  0.5304909458116613
  0.1312401965067379  0.8339151683034990  0.4695090541883386
  0.1312401965067379  0.3339151683034990  0.0304909458116614
  0.8687598034932621  0.6660848316965010  0.9695090541883387
  0.6312401965067379  0.1660848316965011  0.9695090541883387
  0.3687598034932622  0.8339151683034990  0.0304909458116614
  0.3687598034932622  0.3339151683034990  0.4695090541883386
  0.6312401965067379  0.6660848316965010  0.5304909458116613
  0.3687598034932622  0.6660848316965010  0.5304909458116613
  0.6312401965067379  0.3339151683034990  0.4695090541883386
  0.6312401965067379  0.8339151683034990  0.0304909458116614
  0.3687598034932622  0.1660848316965011  0.9695090541883387
  0.2183362964529236  0.6591771401791898  0.0245928653817327
  0.7816637035470767  0.3408228598208101  0.9754071346182674
  0.7816637035470767  0.8408228598208102  0.5245928653817326
  0.2183362964529236  0.1591771401791899  0.4754071346182673
  0.7816637035470767  0.1591771401791899  0.4754071346182673
  0.2183362964529236  0.8408228598208101  0.5245928653817326
  0.2183362964529236  0.3408228598208101  0.9754071346182674
  0.7816637035470767  0.6591771401791898  0.0245928653817327
  0.7183362964529233  0.1591771401791899  0.0245928653817327
  0.2816637035470765  0.8408228598208102  0.9754071346182674
  0.2816637035470765  0.3408228598208101  0.5245928653817326
  0.7183362964529233  0.6591771401791898  0.4754071346182673
  0.2816637035470765  0.6591771401791899  0.4754071346182673
  0.7183362964529233  0.3408228598208101  0.5245928653817326
  0.7183362964529233  0.8408228598208102  0.9754071346182674
  0.2816637035470765  0.1591771401791899  0.0245928653817327
  0.2451696206416611  0.8590986104022164  0.1572433886014548
  0.7548303793583392  0.1409013895977840  0.8427566113985451
  0.7548303793583392  0.6409013895977836  0.6572433886014549
  0.2451696206416611  0.3590986104022161  0.3427566113985452
  0.7548303793583392  0.3590986104022161  0.3427566113985454
  0.2451696206416611  0.6409013895977836  0.6572433886014549
  0.2451696206416611  0.1409013895977840  0.8427566113985451
  0.7548303793583392  0.8590986104022164  0.1572433886014548
  0.7451696206416608  0.3590986104022161  0.1572433886014548
  0.2548303793583389  0.6409013895977836  0.8427566113985451
  0.2548303793583389  0.1409013895977840  0.6572433886014549
  0.7451696206416608  0.8590986104022164  0.3427566113985452
  0.2548303793583389  0.8590986104022164  0.3427566113985454
  0.7451696206416608  0.1409013895977840  0.6572433886014549
  0.7451696206416608  0.6409013895977836  0.8427566113985451
  0.2548303793583389  0.3590986104022161  0.1572433886014548
  0.1827736112004949  0.0631087740032576  0.2368655916149645
  0.8172263887995054  0.9368912259967425  0.7631344083850354
  0.8172263887995054  0.4368912259967425  0.7368655916149646
  0.1827736112004949  0.5631087740032575  0.2631344083850356
  0.8172263887995054  0.5631087740032575  0.2631344083850356
  0.1827736112004949  0.4368912259967425  0.7368655916149646
  0.1827736112004949  0.9368912259967425  0.7631344083850354
  0.8172263887995054  0.0631087740032576  0.2368655916149645
  0.6827736112004946  0.5631087740032575  0.2368655916149645
  0.3172263887995050  0.4368912259967425  0.7631344083850354
  0.3172263887995050  0.9368912259967425  0.7368655916149646
  0.6827736112004946  0.0631087740032576  0.2631344083850356
  0.3172263887995050  0.0631087740032576  0.2631344083850356
  0.6827736112004946  0.9368912259967425  0.7368655916149646
  0.6827736112004946  0.4368912259967425  0.7631344083850354
  0.3172263887995050  0.5631087740032575  0.2368655916149645
  0.0952636175983648  0.0626047319695473  0.1832744196580195
  0.9047363824016352  0.9373952680304527  0.8167255803419805
  0.9047363824016352  0.4373952680304527  0.6832744196580195
  0.0952636175983648  0.5626047319695473  0.3167255803419806
  0.9047363824016352  0.5626047319695473  0.3167255803419806
  0.0952636175983648  0.4373952680304527  0.6832744196580195
  0.0952636175983648  0.9373952680304527  0.8167255803419805
  0.9047363824016352  0.0626047319695473  0.1832744196580195
  0.5952636175983648  0.5626047319695473  0.1832744196580195
  0.4047363824016353  0.4373952680304527  0.8167255803419805
  0.4047363824016353  0.9373952680304527  0.6832744196580195
  0.5952636175983648  0.0626047319695473  0.3167255803419806
  0.4047363824016353  0.0626047319695473  0.3167255803419806
  0.5952636175983648  0.9373952680304527  0.6832744196580195
  0.5952636175983648  0.4373952680304527  0.8167255803419805
  0.4047363824016353  0.5626047319695473  0.1832744196580195
 
  0.00000000E+00  0.00000000E+00  0.00000000E+00
  0.00000000E+00  0.00000000E+00  0.00000000E+00
  0.00000000E+00  0.00000000E+00  0.00000000E+00
  0.00000000E+00  0.00000000E+00  0.00000000E+00
  0.00000000E+00  0.00000000E+00  0.00000000E+00
  0.00000000E+00  0.00000000E+00  0.00000000E+00
  0.00000000E+00  0.00000000E+00  0.00000000E+00
  0.00000000E+00  0.00000000E+00  0.00000000E+00
  0.00000000E+00  0.00000000E+00  0.00000000E+00
  0.00000000E+00  0.00000000E+00  0.00000000E+00
  0.00000000E+00  0.00000000E+00  0.00000000E+00
  0.00000000E+00  0.00000000E+00  0.00000000E+00
  0.00000000E+00  0.00000000E+00  0.00000000E+00
  0.00000000E+00  0.00000000E+00  0.00000000E+00
  0.00000000E+00  0.00000000E+00  0.00000000E+00
  0.00000000E+00  0.00000000E+00  0.00000000E+00
  0.00000000E+00  0.00000000E+00  0.00000000E+00
  0.00000000E+00  0.00000000E+00  0.00000000E+00
  0.00000000E+00  0.00000000E+00  0.00000000E+00
  0.00000000E+00  0.00000000E+00  0.00000000E+00
  0.00000000E+00  0.00000000E+00  0.00000000E+00
  0.00000000E+00  0.00000000E+00  0.00000000E+00
  0.00000000E+00  0.00000000E+00  0.00000000E+00
  0.00000000E+00  0.00000000E+00  0.00000000E+00
  0.00000000E+00  0.00000000E+00  0.00000000E+00
  0.00000000E+00  0.00000000E+00  0.00000000E+00
  0.00000000E+00  0.00000000E+00  0.00000000E+00
  0.00000000E+00  0.00000000E+00  0.00000000E+00
  0.00000000E+00  0.00000000E+00  0.00000000E+00
  0.00000000E+00  0.00000000E+00  0.00000000E+00
  0.00000000E+00  0.00000000E+00  0.00000000E+00
  0.00000000E+00  0.00000000E+00  0.00000000E+00
  0.00000000E+00  0.00000000E+00  0.00000000E+00
  0.00000000E+00  0.00000000E+00  0.00000000E+00
  0.00000000E+00  0.00000000E+00  0.00000000E+00
  0.00000000E+00  0.00000000E+00  0.00000000E+00
  0.00000000E+00  0.00000000E+00  0.00000000E+00
  0.00000000E+00  0.00000000E+00  0.00000000E+00
  0.00000000E+00  0.00000000E+00  0.00000000E+00
  0.00000000E+00  0.00000000E+00  0.00000000E+00
  0.00000000E+00  0.00000000E+00  0.00000000E+00
  0.00000000E+00  0.00000000E+00  0.00000000E+00
  0.00000000E+00  0.00000000E+00  0.00000000E+00
  0.00000000E+00  0.00000000E+00  0.00000000E+00
  0.00000000E+00  0.00000000E+00  0.00000000E+00
  0.00000000E+00  0.00000000E+00  0.00000000E+00
  0.00000000E+00  0.00000000E+00  0.00000000E+00
  0.00000000E+00  0.00000000E+00  0.00000000E+00
  0.00000000E+00  0.00000000E+00  0.00000000E+00
  0.00000000E+00  0.00000000E+00  0.00000000E+00
  0.00000000E+00  0.00000000E+00  0.00000000E+00
  0.00000000E+00  0.00000000E+00  0.00000000E+00
  0.00000000E+00  0.00000000E+00  0.00000000E+00
  0.00000000E+00  0.00000000E+00  0.00000000E+00
  0.00000000E+00  0.00000000E+00  0.00000000E+00
  0.00000000E+00  0.00000000E+00  0.00000000E+00
  0.00000000E+00  0.00000000E+00  0.00000000E+00
  0.00000000E+00  0.00000000E+00  0.00000000E+00
  0.00000000E+00  0.00000000E+00  0.00000000E+00
  0.00000000E+00  0.00000000E+00  0.00000000E+00
  0.00000000E+00  0.00000000E+00  0.00000000E+00
  0.00000000E+00  0.00000000E+00  0.00000000E+00
  0.00000000E+00  0.00000000E+00  0.00000000E+00
  0.00000000E+00  0.00000000E+00  0.00000000E+00
  0.00000000E+00  0.00000000E+00  0.00000000E+00
  0.00000000E+00  0.00000000E+00  0.00000000E+00
  0.00000000E+00  0.00000000E+00  0.00000000E+00
  0.00000000E+00  0.00000000E+00  0.00000000E+00
  0.00000000E+00  0.00000000E+00  0.00000000E+00
  0.00000000E+00  0.00000000E+00  0.00000000E+00
  0.00000000E+00  0.00000000E+00  0.00000000E+00
  0.00000000E+00  0.00000000E+00  0.00000000E+00
  0.00000000E+00  0.00000000E+00  0.00000000E+00
  0.00000000E+00  0.00000000E+00  0.00000000E+00
  0.00000000E+00  0.00000000E+00  0.00000000E+00
  0.00000000E+00  0.00000000E+00  0.00000000E+00
  0.00000000E+00  0.00000000E+00  0.00000000E+00
  0.00000000E+00  0.00000000E+00  0.00000000E+00
  0.00000000E+00  0.00000000E+00  0.00000000E+00
  0.00000000E+00  0.00000000E+00  0.00000000E+00
  0.00000000E+00  0.00000000E+00  0.00000000E+00
  0.00000000E+00  0.00000000E+00  0.00000000E+00
  0.00000000E+00  0.00000000E+00  0.00000000E+00
  0.00000000E+00  0.00000000E+00  0.00000000E+00
  0.00000000E+00  0.00000000E+00  0.00000000E+00
  0.00000000E+00  0.00000000E+00  0.00000000E+00
  0.00000000E+00  0.00000000E+00  0.00000000E+00
  0.00000000E+00  0.00000000E+00  0.00000000E+00
  0.00000000E+00  0.00000000E+00  0.00000000E+00
  0.00000000E+00  0.00000000E+00  0.00000000E+00
  0.00000000E+00  0.00000000E+00  0.00000000E+00
  0.00000000E+00  0.00000000E+00  0.00000000E+00
  0.00000000E+00  0.00000000E+00  0.00000000E+00
  0.00000000E+00  0.00000000E+00  0.00000000E+00
  0.00000000E+00  0.00000000E+00  0.00000000E+00
  0.00000000E+00  0.00000000E+00  0.00000000E+00
  0.00000000E+00  0.00000000E+00  0.00000000E+00
  0.00000000E+00  0.00000000E+00  0.00000000E+00
  0.00000000E+00  0.00000000E+00  0.00000000E+00
  0.00000000E+00  0.00000000E+00  0.00000000E+00
  0.00000000E+00  0.00000000E+00  0.00000000E+00
  0.00000000E+00  0.00000000E+00  0.00000000E+00
  0.00000000E+00  0.00000000E+00  0.00000000E+00
  0.00000000E+00  0.00000000E+00  0.00000000E+00
  0.00000000E+00  0.00000000E+00  0.00000000E+00
  0.00000000E+00  0.00000000E+00  0.00000000E+00
  0.00000000E+00  0.00000000E+00  0.00000000E+00
  0.00000000E+00  0.00000000E+00  0.00000000E+00
  0.00000000E+00  0.00000000E+00  0.00000000E+00
  0.00000000E+00  0.00000000E+00  0.00000000E+00
  0.00000000E+00  0.00000000E+00  0.00000000E+00
  0.00000000E+00  0.00000000E+00  0.00000000E+00
  0.00000000E+00  0.00000000E+00  0.00000000E+00
  0.00000000E+00  0.00000000E+00  0.00000000E+00
  0.00000000E+00  0.00000000E+00  0.00000000E+00
  0.00000000E+00  0.00000000E+00  0.00000000E+00
  0.00000000E+00  0.00000000E+00  0.00000000E+00
  0.00000000E+00  0.00000000E+00  0.00000000E+00
  0.00000000E+00  0.00000000E+00  0.00000000E+00
  0.00000000E+00  0.00000000E+00  0.00000000E+00
  0.00000000E+00  0.00000000E+00  0.00000000E+00
  0.00000000E+00  0.00000000E+00  0.00000000E+00
  0.00000000E+00  0.00000000E+00  0.00000000E+00
  0.00000000E+00  0.00000000E+00  0.00000000E+00
  0.00000000E+00  0.00000000E+00  0.00000000E+00
  0.00000000E+00  0.00000000E+00  0.00000000E+00
  0.00000000E+00  0.00000000E+00  0.00000000E+00
  0.00000000E+00  0.00000000E+00  0.00000000E+00
  0.00000000E+00  0.00000000E+00  0.00000000E+00
  0.00000000E+00  0.00000000E+00  0.00000000E+00
  0.00000000E+00  0.00000000E+00  0.00000000E+00
  0.00000000E+00  0.00000000E+00  0.00000000E+00
  0.00000000E+00  0.00000000E+00  0.00000000E+00
  0.00000000E+00  0.00000000E+00  0.00000000E+00
  0.00000000E+00  0.00000000E+00  0.00000000E+00
  0.00000000E+00  0.00000000E+00  0.00000000E+00
  0.00000000E+00  0.00000000E+00  0.00000000E+00
  0.00000000E+00  0.00000000E+00  0.00000000E+00
  0.00000000E+00  0.00000000E+00  0.00000000E+00
  0.00000000E+00  0.00000000E+00  0.00000000E+00
  0.00000000E+00  0.00000000E+00  0.00000000E+00
  0.00000000E+00  0.00000000E+00  0.00000000E+00
  0.00000000E+00  0.00000000E+00  0.00000000E+00
  0.00000000E+00  0.00000000E+00  0.00000000E+00
  0.00000000E+00  0.00000000E+00  0.00000000E+00
  0.00000000E+00  0.00000000E+00  0.00000000E+00
  0.00000000E+00  0.00000000E+00  0.00000000E+00
  0.00000000E+00  0.00000000E+00  0.00000000E+00
  0.00000000E+00  0.00000000E+00  0.00000000E+00
  0.00000000E+00  0.00000000E+00  0.00000000E+00
  0.00000000E+00  0.00000000E+00  0.00000000E+00
  0.00000000E+00  0.00000000E+00  0.00000000E+00
  0.00000000E+00  0.00000000E+00  0.00000000E+00
  0.00000000E+00  0.00000000E+00  0.00000000E+00
  0.00000000E+00  0.00000000E+00  0.00000000E+00
  0.00000000E+00  0.00000000E+00  0.00000000E+00
  0.00000000E+00  0.00000000E+00  0.00000000E+00
  0.00000000E+00  0.00000000E+00  0.00000000E+00
  0.00000000E+00  0.00000000E+00  0.00000000E+00
  0.00000000E+00  0.00000000E+00  0.00000000E+00
  0.00000000E+00  0.00000000E+00  0.00000000E+00
  0.00000000E+00  0.00000000E+00  0.00000000E+00
  0.00000000E+00  0.00000000E+00  0.00000000E+00
  0.00000000E+00  0.00000000E+00  0.00000000E+00
  0.00000000E+00  0.00000000E+00  0.00000000E+00
  0.00000000E+00  0.00000000E+00  0.00000000E+00
  0.00000000E+00  0.00000000E+00  0.00000000E+00
  0.00000000E+00  0.00000000E+00  0.00000000E+00
  0.00000000E+00  0.00000000E+00  0.00000000E+00
  0.00000000E+00  0.00000000E+00  0.00000000E+00
  0.00000000E+00  0.00000000E+00  0.00000000E+00
  0.00000000E+00  0.00000000E+00  0.00000000E+00
  0.00000000E+00  0.00000000E+00  0.00000000E+00
  0.00000000E+00  0.00000000E+00  0.00000000E+00
  0.00000000E+00  0.00000000E+00  0.00000000E+00
  0.00000000E+00  0.00000000E+00  0.00000000E+00
  0.00000000E+00  0.00000000E+00  0.00000000E+00
  0.00000000E+00  0.00000000E+00  0.00000000E+00
  0.00000000E+00  0.00000000E+00  0.00000000E+00
  0.00000000E+00  0.00000000E+00  0.00000000E+00
  0.00000000E+00  0.00000000E+00  0.00000000E+00
  0.00000000E+00  0.00000000E+00  0.00000000E+00
  0.00000000E+00  0.00000000E+00  0.00000000E+00
  0.00000000E+00  0.00000000E+00  0.00000000E+00
  0.00000000E+00  0.00000000E+00  0.00000000E+00
  0.00000000E+00  0.00000000E+00  0.00000000E+00
  0.00000000E+00  0.00000000E+00  0.00000000E+00
  0.00000000E+00  0.00000000E+00  0.00000000E+00
  0.00000000E+00  0.00000000E+00  0.00000000E+00
  0.00000000E+00  0.00000000E+00  0.00000000E+00
  0.00000000E+00  0.00000000E+00  0.00000000E+00
  0.00000000E+00  0.00000000E+00  0.00000000E+00
  0.00000000E+00  0.00000000E+00  0.00000000E+00
  0.00000000E+00  0.00000000E+00  0.00000000E+00
  0.00000000E+00  0.00000000E+00  0.00000000E+00
  0.00000000E+00  0.00000000E+00  0.00000000E+00
  0.00000000E+00  0.00000000E+00  0.00000000E+00
  0.00000000E+00  0.00000000E+00  0.00000000E+00
  0.00000000E+00  0.00000000E+00  0.00000000E+00
  0.00000000E+00  0.00000000E+00  0.00000000E+00
  0.00000000E+00  0.00000000E+00  0.00000000E+00
  0.00000000E+00  0.00000000E+00  0.00000000E+00
  0.00000000E+00  0.00000000E+00  0.00000000E+00
  0.00000000E+00  0.00000000E+00  0.00000000E+00
  0.00000000E+00  0.00000000E+00  0.00000000E+00
  0.00000000E+00  0.00000000E+00  0.00000000E+00
  0.00000000E+00  0.00000000E+00  0.00000000E+00
  0.00000000E+00  0.00000000E+00  0.00000000E+00
  0.00000000E+00  0.00000000E+00  0.00000000E+00
  0.00000000E+00  0.00000000E+00  0.00000000E+00
  0.00000000E+00  0.00000000E+00  0.00000000E+00
  0.00000000E+00  0.00000000E+00  0.00000000E+00
  0.00000000E+00  0.00000000E+00  0.00000000E+00
  0.00000000E+00  0.00000000E+00  0.00000000E+00
  0.00000000E+00  0.00000000E+00  0.00000000E+00
  0.00000000E+00  0.00000000E+00  0.00000000E+00
  0.00000000E+00  0.00000000E+00  0.00000000E+00
  0.00000000E+00  0.00000000E+00  0.00000000E+00
  0.00000000E+00  0.00000000E+00  0.00000000E+00
  0.00000000E+00  0.00000000E+00  0.00000000E+00
  0.00000000E+00  0.00000000E+00  0.00000000E+00
  0.00000000E+00  0.00000000E+00  0.00000000E+00
  0.00000000E+00  0.00000000E+00  0.00000000E+00
  0.00000000E+00  0.00000000E+00  0.00000000E+00
  0.00000000E+00  0.00000000E+00  0.00000000E+00
  0.00000000E+00  0.00000000E+00  0.00000000E+00
  0.00000000E+00  0.00000000E+00  0.00000000E+00
  0.00000000E+00  0.00000000E+00  0.00000000E+00
  0.00000000E+00  0.00000000E+00  0.00000000E+00
  0.00000000E+00  0.00000000E+00  0.00000000E+00
  0.00000000E+00  0.00000000E+00  0.00000000E+00
  0.00000000E+00  0.00000000E+00  0.00000000E+00
  0.00000000E+00  0.00000000E+00  0.00000000E+00
  0.00000000E+00  0.00000000E+00  0.00000000E+00
  0.00000000E+00  0.00000000E+00  0.00000000E+00
  0.00000000E+00  0.00000000E+00  0.00000000E+00
  0.00000000E+00  0.00000000E+00  0.00000000E+00
  0.00000000E+00  0.00000000E+00  0.00000000E+00
  0.00000000E+00  0.00000000E+00  0.00000000E+00
  0.00000000E+00  0.00000000E+00  0.00000000E+00
  0.00000000E+00  0.00000000E+00  0.00000000E+00
  0.00000000E+00  0.00000000E+00  0.00000000E+00
  0.00000000E+00  0.00000000E+00  0.00000000E+00
  0.00000000E+00  0.00000000E+00  0.00000000E+00
  0.00000000E+00  0.00000000E+00  0.00000000E+00
  0.00000000E+00  0.00000000E+00  0.00000000E+00
  0.00000000E+00  0.00000000E+00  0.00000000E+00
  0.00000000E+00  0.00000000E+00  0.00000000E+00
  0.00000000E+00  0.00000000E+00  0.00000000E+00
  0.00000000E+00  0.00000000E+00  0.00000000E+00
  0.00000000E+00  0.00000000E+00  0.00000000E+00
  0.00000000E+00  0.00000000E+00  0.00000000E+00
  0.00000000E+00  0.00000000E+00  0.00000000E+00
  0.00000000E+00  0.00000000E+00  0.00000000E+00
  0.00000000E+00  0.00000000E+00  0.00000000E+00
  0.00000000E+00  0.00000000E+00  0.00000000E+00
  0.00000000E+00  0.00000000E+00  0.00000000E+00