 C  H 
 1.0000000000000000
    15.5253999999999994    0.0000000000000000    0.0000000000000000
     0.0000000000000000   12.6226000000000003    0.0000000000000000
     0.0000000000000000    0.0000000000000000   14.1864000000000008
 112 128
Cartesian
  2.3298600000000000 12.3569200000000006 13.4346700000000006
  2.6946200000000000  1.0568000000000000 13.5988500000000005
  2.9561500000000001 11.5993399999999998 12.3975700000000000
  1.3340700000000001 11.7757299999999994  0.2728100000000000
  3.7074400000000001  1.5771700000000000 12.8646999999999991
  3.9900199999999999 12.1450999999999993 11.6604799999999997
  4.4291000000000000  0.8461300000000000 11.8788300000000007
  7.0389099999999996  2.4885199999999998  2.2226499999999998
  7.5928100000000001  2.2739099999999999  3.4868100000000002
  6.9466500000000000  1.4266099999999999  1.2572399999999999
  6.3491900000000001  3.7881300000000002  1.8535200000000001
  8.1851400000000005  1.0255500000000000  3.7825299999999999
  7.6293600000000001  0.2838100000000000  1.5173900000000000
  8.2506400000000006  0.0962900000000000  2.7434799999999999
  1.6824300000000001  6.6854100000000001  3.6091899999999999
  1.1426799999999999  5.5961999999999996  2.9287600000000000
  1.6810600000000000  7.9602800000000000  3.0215000000000001
  2.1712899999999999  6.4977400000000003  4.9862900000000003
  0.5421100000000000  5.8137900000000000  1.6610799999999999
  0.9409900000000000  8.1998899999999999  1.8387899999999999
  0.3096500000000000  7.1431600000000000  1.1975899999999999
  4.3470899999999997  5.7593399999999999  7.2395399999999999
  4.8194999999999997  6.9884300000000001  7.7333999999999996
  5.0735599999999996  5.1468100000000003  6.2082199999999998
  3.2238500000000001  4.9972700000000003  7.7419000000000002
  5.9744999999999999  7.5237600000000002  7.1404699999999997
  6.2873700000000001  5.6217499999999996  5.8081800000000001
  6.8120200000000004  6.8443300000000002  6.2221799999999998
  6.4928299999999997  8.7351500000000009  3.2185100000000002
  6.9722299999999997  9.7998499999999993  2.4148399999999999
  7.1036500000000000  7.4888199999999996  3.1270300000000000
  5.2994700000000003  9.0349599999999999  4.1452900000000001
  8.1298499999999994  9.5994100000000007  1.6872700000000000
  8.3216400000000004  7.3694699999999997  2.4921600000000002
  8.8565199999999997  8.4375699999999991  1.7652900000000000
 10.5378699999999998  3.0749800000000000  7.4054000000000002
 11.3612199999999994  4.0820400000000001  7.8044200000000004
 10.8861899999999991  1.7345500000000000  7.5066199999999998
  9.1580600000000008  3.4596399999999998  7.1843300000000001
 12.6431900000000006  3.7672200000000000  8.2132299999999994
 12.2069399999999995  1.3887799999999999  7.8697699999999999
 13.0799800000000008  2.4125200000000002  8.2101799999999994
 14.5645199999999999  2.1551300000000002  4.0632000000000001
 13.7108699999999999  1.0308999999999999  3.9435099999999998
 13.9609299999999994  3.4063900000000000  4.3388299999999997
  0.4986000000000000  2.0021200000000001  4.3069499999999996
 12.3181200000000004  1.2011499999999999  3.6130800000000001
 12.6021599999999996  3.5908000000000002  3.9611800000000001
 11.8486700000000003  2.5457500000000000  3.5349699999999999
 11.6153700000000004  9.0834399999999995  5.2130900000000002
 12.0499100000000006 10.0929599999999997  6.1174499999999998
 12.5528499999999994  8.5412099999999995  4.2742500000000003
 10.1977200000000003  8.8851999999999993  4.9369199999999998
 13.4103600000000007 10.3854900000000008  6.1225399999999999
 13.9466300000000007  8.9063599999999994  4.3167499999999999
 14.3940999999999999  9.7849100000000000  5.3226100000000001
  2.3298600000000000 12.3569200000000006  6.3414700000000002
  2.6946200000000000  1.0568000000000000  6.5056500000000002
  2.9561500000000001 11.5993399999999998  5.3043699999999996
  1.3340700000000001 11.7757299999999994  7.3660100000000002
  3.7074400000000001  1.5771700000000000  5.7714999999999996
  3.9900199999999999 12.1450999999999993  4.5672800000000002
  4.4291000000000000  0.8461300000000000  4.7856300000000003
  7.0389099999999996  2.4885199999999998  9.3158499999999993
  7.5928100000000001  2.2739099999999999 10.5800099999999997
  6.9466500000000000  1.4266099999999999  8.3504400000000008
  6.3491900000000001  3.7881300000000002  8.9467199999999991
  8.1851400000000005  1.0255500000000000 10.8757300000000008
  7.6293600000000001  0.2838100000000000  8.6105900000000002
  8.2506400000000006  0.0962900000000000  9.8366799999999994
  1.6824300000000001  6.6854100000000001 10.7023899999999994
  1.1426799999999999  5.5961999999999996 10.0219600000000000
  1.6810600000000000  7.9602800000000000 10.1146999999999991
  2.1712899999999999  6.4977400000000003 12.0794899999999998
  0.5421100000000000  5.8137900000000000  8.7542799999999996
  0.9409900000000000  8.1998899999999999  8.9319900000000008
  0.3096500000000000  7.1431600000000000  8.2907899999999994
  4.3470899999999997  5.7593399999999999  0.1463400000000000
  4.8194999999999997  6.9884300000000001  0.6402000000000000
  5.0735599999999996  5.1468100000000003 13.3014200000000002
  3.2238500000000001  4.9972700000000003  0.6487000000000001
  5.9744999999999999  7.5237600000000002  0.0472700000000000
  6.2873700000000001  5.6217499999999996 12.9013799999999996
  6.8120200000000004  6.8443300000000002 13.3153799999999993
  6.4928299999999997  8.7351500000000009 10.3117099999999997
  6.9722299999999997  9.7998499999999993  9.5080399999999994
  7.1036500000000000  7.4888199999999996 10.2202300000000008
  5.2994700000000003  9.0349599999999999 11.2384900000000005
  8.1298499999999994  9.5994100000000007  8.7804699999999993
  8.3216400000000004  7.3694699999999997  9.5853599999999997
  8.8565199999999997  8.4375699999999991  8.8584899999999998
 10.5378699999999998  3.0749800000000000  0.3122000000000000
 11.3612199999999994  4.0820400000000001  0.7112200000000000
 10.8861899999999991  1.7345500000000000  0.4134200000000000
  9.1580600000000008  3.4596399999999998  0.0911300000000000
 12.6431900000000006  3.7672200000000000  1.1200300000000001
 12.2069399999999995  1.3887799999999999  0.7765700000000000
 13.0799800000000008  2.4125200000000002  1.1169800000000001
 14.5645199999999999  2.1551300000000002 11.1563999999999997
 13.7108699999999999  1.0308999999999999 11.0367099999999994
 13.9609299999999994  3.4063900000000000 11.4320299999999992
  0.4986000000000000  2.0021200000000001 11.4001500000000000
 12.3181200000000004  1.2011499999999999 10.7062799999999996
 12.6021599999999996  3.5908000000000002 11.0543800000000001
 11.8486700000000003  2.5457500000000000 10.6281700000000008
 11.6153700000000004  9.0834399999999995 12.3062900000000006
 12.0499100000000006 10.0929599999999997 13.2106499999999993
 12.5528499999999994  8.5412099999999995 11.3674499999999998
 10.1977200000000003  8.8851999999999993 12.0301200000000001
 13.4103600000000007 10.3854900000000008 13.2157400000000003
 13.9466300000000007  8.9063599999999994 11.4099500000000003
 14.3940999999999999  9.7849100000000000 12.4158100000000005
  2.1585399999999999  1.6780100000000000  0.1570700000000000
  2.6394000000000002 10.5377399999999994 12.3315099999999997
  1.7273400000000001 10.7064199999999996  0.5556700000000000
  1.2270799999999999 12.4754100000000001  1.1601200000000000
  0.3828600000000000 11.7297399999999996 13.9494100000000003
  4.0747499999999999  2.5853999999999999 13.1477900000000005
  4.4551699999999999 11.5131099999999993 10.9329999999999998
  5.4313500000000001  1.2643200000000001 11.5469000000000008
  7.3510499999999999  3.0278900000000002  4.2582300000000002
  6.4180900000000003  1.5100300000000000  0.2602100000000000
  5.2770999999999999  3.6032799999999998  1.5766400000000000
  6.5151199999999996  4.5390800000000002  2.6399300000000001
  6.6383400000000004  4.2566800000000002  0.8983600000000000
  8.5722500000000004  0.8557600000000000  4.7896299999999998
  7.7078800000000003 12.1254299999999997  0.8320800000000000
  8.7826400000000007 11.8572199999999999  2.9251999999999998
  1.0911100000000000  4.5971299999999999  3.4469200000000000
  2.1661100000000002  8.7934599999999996  3.5277699999999999
  1.5100100000000001  6.8986000000000001  5.7451699999999999
  2.2625500000000001  5.4042300000000001  5.0762299999999998
  3.2110799999999999  6.9907000000000004  5.0708000000000002
  0.1093200000000000  4.9992400000000004  1.1649000000000000
  0.7254800000000000  9.2609700000000004  1.5071500000000000
 15.3796499999999998  7.2775400000000001  0.1801100000000000
  4.4603999999999999  7.4915799999999999  8.6083700000000007
  4.8951300000000000  4.1516999999999999  5.8531399999999998
  3.2613699999999999  3.9886900000000001  7.2949599999999997
  3.2626700000000000  4.8549800000000003  8.8497800000000009
  2.1881100000000000  5.4240599999999999  7.6162599999999996
  6.1947700000000001  8.5468899999999994  7.5087299999999999
  6.8093199999999996  5.0631800000000000  5.0487099999999998
  7.6259399999999999  7.3736300000000004  5.7459699999999998
  6.3761799999999997 10.7957099999999997  2.3678499999999998
  6.6544200000000000  6.6727600000000002  3.6007199999999999
  4.5726300000000002  9.7314699999999998  3.6522000000000001
  4.7472000000000003  8.0792500000000000  4.2188400000000001
  5.5961499999999997  9.4459900000000001  5.1345700000000001
  8.4651700000000005 10.4871300000000005  1.1115900000000001
  8.8059200000000004  6.3506900000000002  2.4889500000000000
  9.7880900000000004  8.1971000000000007  1.1857800000000001
 11.1469299999999993  5.1538599999999999  7.7473599999999996
 10.1428600000000007  1.0775200000000000  7.0783100000000001
  9.0097400000000007  4.5529000000000002  6.8994600000000004
  8.6232799999999994  2.8706600000000000  6.4307100000000004
  8.6100700000000003  3.1572200000000001  8.0945099999999996
 13.3060600000000004  4.5755600000000003  8.6129999999999995
 12.5745400000000007  0.3795500000000000  8.0961700000000008
 14.0835600000000003  2.2205900000000001  8.5960500000000000
 14.1652100000000001  0.0108800000000000  3.8974099999999998
 14.5221599999999995  4.2627499999999996  4.7885200000000001
  0.7077900000000000  1.6328000000000000  5.3201200000000002
  0.7950600000000000  1.2551800000000000  3.5812400000000002
  0.9962100000000000  2.9194000000000000  4.1274199999999999
 11.6790599999999998  0.3327300000000000  3.4268999999999998
 12.2795100000000001  4.6141300000000003  3.7781199999999999
 10.8362499999999997  2.7562300000000000  3.1660200000000001
 11.3300699999999992 10.6921900000000001  6.6477599999999999
 12.1665899999999993  7.6957300000000002  3.6601300000000001
  9.9532699999999998  9.2813700000000008  3.9586899999999998
  9.8817699999999995  7.8244999999999996  4.9583899999999996
  9.4915900000000004  9.4331899999999997  5.5965100000000003
 13.7574299999999994 11.2518999999999991  6.7449000000000003
 14.5993200000000005  8.5317200000000000  3.5350100000000002
 15.3682700000000008 10.2467100000000002  5.3118400000000001
  2.1585399999999999  1.6780100000000000  7.2502700000000004
  2.6394000000000002 10.5377399999999994  5.2383100000000002
  1.7273400000000001 10.7064199999999996  7.6488699999999996
  1.2270799999999999 12.4754100000000001  8.2533200000000004
  0.3828600000000000 11.7297399999999996  6.8562099999999999
  4.0747499999999999  2.5853999999999999  6.0545900000000001
  4.4551699999999999 11.5131099999999993  3.8397999999999999
  5.4313500000000001  1.2643200000000001  4.4537000000000004
  7.3510499999999999  3.0278900000000002 11.3514300000000006
  6.4180900000000003  1.5100300000000000  7.3534100000000002
  5.2770999999999999  3.6032799999999998  8.6698400000000007
  6.5151199999999996  4.5390800000000002  9.7331299999999992
  6.6383400000000004  4.2566800000000002  7.9915599999999998
  8.5722500000000004  0.8557600000000000 11.8828300000000002
  7.7078800000000003 12.1254299999999997  7.9252799999999999
  8.7826400000000007 11.8572199999999999 10.0183999999999997
  1.0911100000000000  4.5971299999999999 10.5401199999999999
  2.1661100000000002  8.7934599999999996 10.6209699999999998
  1.5100100000000001  6.8986000000000001 12.8383699999999994
  2.2625500000000001  5.4042300000000001 12.1694300000000002
  3.2110799999999999  6.9907000000000004 12.1639999999999997
  0.1093200000000000  4.9992400000000004  8.2581000000000007
  0.7254800000000000  9.2609700000000004  8.6003500000000006
 15.3796499999999998  7.2775400000000001  7.2733100000000004
  4.4603999999999999  7.4915799999999999  1.5151699999999999
  4.8951300000000000  4.1516999999999999 12.9463399999999993
  3.2613699999999999  3.9886900000000001  0.2017600000000000
  3.2626700000000000  4.8549800000000003  1.7565800000000000
  2.1881100000000000  5.4240599999999999  0.5230600000000000
  6.1947700000000001  8.5468899999999994  0.4155300000000000
  6.8093199999999996  5.0631800000000000 12.1419099999999993
  7.6259399999999999  7.3736300000000004 12.8391699999999993
  6.3761799999999997 10.7957099999999997  9.4610500000000002
  6.6544200000000000  6.6727600000000002 10.6939200000000003
  4.5726300000000002  9.7314699999999998 10.7454000000000001
  4.7472000000000003  8.0792500000000000 11.3120399999999997
  5.5961499999999997  9.4459900000000001 12.2277699999999996
  8.4651700000000005 10.4871300000000005  8.2047899999999991
  8.8059200000000004  6.3506900000000002  9.5821500000000004
  9.7880900000000004  8.1971000000000007  8.2789800000000007
 11.1469299999999993  5.1538599999999999  0.6541600000000000
 10.1428600000000007  1.0775200000000000 14.1715099999999996
  9.0097400000000007  4.5529000000000002 13.9926600000000008
  8.6232799999999994  2.8706600000000000 13.5239100000000008
  8.6100700000000003  3.1572200000000001  1.0013099999999999
 13.3060600000000004  4.5755600000000003  1.5198000000000000
 12.5745400000000007  0.3795500000000000  1.0029699999999999
 14.0835600000000003  2.2205900000000001  1.5028500000000000
 14.1652100000000001  0.0108800000000000 10.9906100000000002
 14.5221599999999995  4.2627499999999996 11.8817199999999996
  0.7077900000000000  1.6328000000000000 12.4133200000000006
  0.7950600000000000  1.2551800000000000 10.6744400000000006
  0.9962100000000000  2.9194000000000000 11.2206200000000003
 11.6790599999999998  0.3327300000000000 10.5200999999999993
 12.2795100000000001  4.6141300000000003 10.8713200000000008
 10.8362499999999997  2.7562300000000000 10.2592199999999991
 11.3300699999999992 10.6921900000000001 13.7409599999999994
 12.1665899999999993  7.6957300000000002 10.7533300000000001
  9.9532699999999998  9.2813700000000008 11.0518900000000002
  9.8817699999999995  7.8244999999999996 12.0515899999999991
  9.4915900000000004  9.4331899999999997 12.6897099999999998
 13.7574299999999994 11.2518999999999991 13.8381000000000007
 14.5993200000000005  8.5317200000000000 10.6282099999999993
 15.3682700000000008 10.2467100000000002 12.4050399999999996
