 C  H                                   
   1.00000000000000     
     7.6388653630528189    0.0000000000000000   -0.0000000000000000
     0.0000000000000000   10.3651467997359408    0.0000000000000000
     0.0000000000000000    0.0000000000000000    6.7884169489835324
   C    H 
    24    24
Direct
  0.8222978550292255  0.3373011257618710  0.0136055856065750
  0.6777021449708398  0.6626988742380671  0.5136055856065184
  0.1777021449708102  0.8373011257619437  0.4863944143933321
  0.3222978550292954  0.1626988742381108  0.9863944143933312
  0.1777021449708116  0.6626988742380493  0.9863944143933309
  0.3222978550293610  0.3373011257618712  0.4863944143934104
  0.8222978550291535  0.1626988742381214  0.5136055856065243
  0.6777021449708390  0.8373011257619720  0.0136055856065770
  0.1989467883315440  0.1098036102012928  0.1037649220877397
  0.3010532116684916  0.8901963897987655  0.6037649220877453
  0.8010532116685675  0.6098036102012393  0.3962350779121852
  0.6989467883314336  0.3901963897986938  0.8962350779122557
  0.8010532116685661  0.8901963897987601  0.8962350779122554
  0.6989467883314336  0.1098036102012926  0.3962350779121833
  0.1989467883315443  0.3901963897986892  0.6037649220877447
  0.3010532116684914  0.6098036102012364  0.1037649220877438
  0.0605165960570397  1.0326533054827503  0.0312836083347402
  0.4394834039430148 -0.0326533054827018  0.5312836083348008
  0.9394834039430865  0.5326533054827518  0.4687163916652769
  0.5605165960569137  0.4673466945172504  0.9687163916651985
  0.9394834039430865 -0.0326533054827016  0.9687163916653518
  0.5605165960569137  1.0326533054827494  0.4687163916652730
  0.0605165960570395  0.4673466945172496  0.5312836083348059
  0.4394834039430147  0.5326533054827516  0.0312836083347402
  0.9263058519324532  0.2770262940482402 -0.0456603525998361
  0.5736941480675463  0.7229737059517616  0.4543396474001993
  0.0736941480674283  0.7770262940482242  0.5456603525996238
  0.4263058519325900  0.2229737059517949  1.0456603526000690
  0.0736941480674343  0.7229737059517600  1.0456603526000907
  0.4263058519325963  0.2770262940482368  0.5456603525996556
  0.9263058519324531  0.2229737059517979  0.4543396474002314
  0.5736941480675463  0.7770262940482295 -0.0456603525998358
  0.2029560301990559  0.1260937898918626  0.2630772391791314
  0.2970439698009432  0.8739062101080655  0.7630772391791319
  0.7970439698007993  0.6260937898919342  0.2369227608208325
  0.7029560301992003  0.3739062101082108  0.7369227608208699
  0.7970439698007996  0.8739062101080654  0.7369227608208681
  0.7029560301992003  0.1260937898918602  0.2369227608208314
  0.2029560301990565  0.3739062101082118  0.7630772391791301
  0.2970439698009432  0.6260937898919343  0.2630772391791324
  0.1796108093082301  0.8535852327810725  0.3278399572235347
  0.3203891906917710  0.1464147672188724  0.8278399572235335
  0.8203891906917687  0.3535852327811457  0.1721600427764655
  0.6796108093082318  0.6464147672189273  0.6721600427764667
  0.8203891906917687  0.1464147672188734  0.6721600427764662
  0.6796108093082321  0.8535852327810728  0.1721600427764659
  0.1796108093082313  0.6464147672189272  0.8278399572235334
  0.3203891906917705  0.3535852327811457  0.3278399572235351
 
  0.00000000E+00  0.00000000E+00  0.00000000E+00
  0.00000000E+00  0.00000000E+00  0.00000000E+00
  0.00000000E+00  0.00000000E+00  0.00000000E+00
  0.00000000E+00  0.00000000E+00  0.00000000E+00
  0.00000000E+00  0.00000000E+00  0.00000000E+00
  0.00000000E+00  0.00000000E+00  0.00000000E+00
  0.00000000E+00  0.00000000E+00  0.00000000E+00
  0.00000000E+00  0.00000000E+00  0.00000000E+00
  0.00000000E+00  0.00000000E+00  0.00000000E+00
  0.00000000E+00  0.00000000E+00  0.00000000E+00
  0.00000000E+00  0.00000000E+00  0.00000000E+00
  0.00000000E+00  0.00000000E+00  0.00000000E+00
  0.00000000E+00  0.00000000E+00  0.00000000E+00
  0.00000000E+00  0.00000000E+00  0.00000000E+00
  0.00000000E+00  0.00000000E+00  0.00000000E+00
  0.00000000E+00  0.00000000E+00  0.00000000E+00
  0.00000000E+00  0.00000000E+00  0.00000000E+00
  0.00000000E+00  0.00000000E+00  0.00000000E+00
  0.00000000E+00  0.00000000E+00  0.00000000E+00
  0.00000000E+00  0.00000000E+00  0.00000000E+00
  0.00000000E+00  0.00000000E+00  0.00000000E+00
  0.00000000E+00  0.00000000E+00  0.00000000E+00
  0.00000000E+00  0.00000000E+00  0.00000000E+00
  0.00000000E+00  0.00000000E+00  0.00000000E+00
  0.00000000E+00  0.00000000E+00  0.00000000E+00
  0.00000000E+00  0.00000000E+00  0.00000000E+00
  0.00000000E+00  0.00000000E+00  0.00000000E+00
  0.00000000E+00  0.00000000E+00  0.00000000E+00
  0.00000000E+00  0.00000000E+00  0.00000000E+00
  0.00000000E+00  0.00000000E+00  0.00000000E+00
  0.00000000E+00  0.00000000E+00  0.00000000E+00
  0.00000000E+00  0.00000000E+00  0.00000000E+00
  0.00000000E+00  0.00000000E+00  0.00000000E+00
  0.00000000E+00  0.00000000E+00  0.00000000E+00
  0.00000000E+00  0.00000000E+00  0.00000000E+00
  0.00000000E+00  0.00000000E+00  0.00000000E+00
  0.00000000E+00  0.00000000E+00  0.00000000E+00
  0.00000000E+00  0.00000000E+00  0.00000000E+00
  0.00000000E+00  0.00000000E+00  0.00000000E+00
  0.00000000E+00  0.00000000E+00  0.00000000E+00
  0.00000000E+00  0.00000000E+00  0.00000000E+00
  0.00000000E+00  0.00000000E+00  0.00000000E+00
  0.00000000E+00  0.00000000E+00  0.00000000E+00
  0.00000000E+00  0.00000000E+00  0.00000000E+00
  0.00000000E+00  0.00000000E+00  0.00000000E+00
  0.00000000E+00  0.00000000E+00  0.00000000E+00
  0.00000000E+00  0.00000000E+00  0.00000000E+00
  0.00000000E+00  0.00000000E+00  0.00000000E+00
