INCAR created by Atomic Simulation Environment
 AGGAC = 0.000000
 ENCUT = 520.000000
 SIGMA = 0.050000
 EDIFF = 1.00e-08
 EDIFFG = -5.00e-02
 GGA = PE
 PREC = Accurate
 IBRION = 1
 ISIF = 3
 ISMEAR = 0
 NSW = 200
 NWRITE = 1
 NCORE = 16
 LCHARG = .FALSE.
 LUSE_VDW = .TRUE.
 LWAVE = .FALSE.
 LREAL = .FALSE.
