 C                                      
   1.00000000000000     
    13.6545479339733458    0.0000000000000000    0.0000000000000000
     0.0000000000000000    8.5610426977530452    0.0000000000000000
     0.0000000000000000    0.0000000000000000    4.9480599671087555
   C 
    64
Direct
 -0.0000000000000000 -0.0003799793145296 -0.0000000000000000
  0.0000000000000000  0.2496200206854704  0.2500000000000000
  0.2500000000000000  0.0003799793145296 -0.0000000000000000
  0.2500000000000000  0.2503799793145296  0.2500000000000000
 -0.0000000000000000  0.9161908251275395  0.2500000000000000
 -0.0000000000000000  0.1661908251275390  0.5000000000000000
  0.2500000000000000  0.0838091748724609  0.2500000000000000
  0.2500000000000000  0.3338091748724537  0.5000000000000000
  0.5000000000000000 -0.0003799793145296 -0.0000000000000000
  0.5000000000000000  0.2496200206854704  0.2500000000000000
  0.7500000000000000  0.0003799793145296  0.0000000000000000
  0.7500000000000000  0.2503799793145296  0.2500000000000000
  0.5000000000000000  0.9161908251275395  0.2500000000000000
  0.5000000000000000  0.1661908251275390  0.5000000000000000
  0.7500000000000000  0.0838091748724609  0.2500000000000000
  0.7500000000000000  0.3338091748724537  0.5000000000000000
  0.0000000000000000  0.4996200206854703 -0.0000000000000000
 -0.0000000000000000  0.7496200206854710  0.2500000000000000
  0.2500000000000000  0.5003799793145292 -0.0000000000000000
  0.2500000000000000  0.7503799793145290  0.2500000000000000
 -0.0000000000000000  0.4161908251275392  0.2500000000000000
 -0.0000000000000000  0.6661908251275395  0.5000000000000000
  0.2500000000000000  0.5838091748724605  0.2500000000000000
  0.2500000000000000  0.8338091748724605  0.5000000000000000
  0.5000000000000000  0.4996200206854703  0.0000000000000000
  0.5000000000000000  0.7496200206854710  0.2500000000000000
  0.7500000000000000  0.5003799793145292  0.0000000000000000
  0.7500000000000000  0.7503799793145290  0.2500000000000000
  0.5000000000000000  0.4161908251275392  0.2500000000000000
  0.5000000000000000  0.6661908251275395  0.5000000000000000
  0.7500000000000000  0.5838091748724605  0.2500000000000000
  0.7500000000000000  0.8338091748724605  0.5000000000000000
  0.0000000000000000 -0.0003799793145296  0.5000000000000000
  0.0000000000000000  0.2496200206854704  0.7500000000000000
  0.2500000000000000  0.0003799793145296  0.5000000000000000
  0.2500000000000000  0.2503799793145296  0.7500000000000000
  0.0000000000000000  0.9161908251275395  0.7500000000000000
 -0.0000000000000000  0.1661908251275390 -0.0000000000000000
  0.2500000000000000  0.0838091748724609  0.7500000000000000
  0.2500000000000000  0.3338091748724537 -0.0000000000000000
  0.5000000000000000 -0.0003799793145296  0.5000000000000000
  0.5000000000000000  0.2496200206854704  0.7500000000000000
  0.7500000000000000  0.0003799793145296  0.5000000000000000
  0.7500000000000000  0.2503799793145296  0.7500000000000000
  0.5000000000000000  0.9161908251275395  0.7500000000000000
  0.5000000000000000  0.1661908251275390  0.0000000000000000
  0.7500000000000000  0.0838091748724609  0.7500000000000000
  0.7500000000000000  0.3338091748724537 -0.0000000000000000
 -0.0000000000000000  0.4996200206854703  0.5000000000000000
  0.0000000000000000  0.7496200206854710  0.7500000000000000
  0.2500000000000000  0.5003799793145292  0.5000000000000000
  0.2500000000000000  0.7503799793145290  0.7500000000000000
 -0.0000000000000000  0.4161908251275392  0.7500000000000000
  0.0000000000000000  0.6661908251275395  0.0000000000000000
  0.2500000000000000  0.5838091748724605  0.7500000000000000
  0.2500000000000000  0.8338091748724605  0.0000000000000000
  0.5000000000000000  0.4996200206854703  0.5000000000000000
  0.5000000000000000  0.7496200206854710  0.7500000000000000
  0.7500000000000000  0.5003799793145292  0.5000000000000000
  0.7500000000000000  0.7503799793145290  0.7500000000000000
  0.5000000000000000  0.4161908251275392  0.7500000000000000
  0.5000000000000000  0.6661908251275395  0.0000000000000000
  0.7500000000000000  0.5838091748724605  0.7500000000000000
  0.7500000000000000  0.8338091748724605  0.0000000000000000
 
  0.00000000E+00  0.00000000E+00  0.00000000E+00
  0.00000000E+00  0.00000000E+00  0.00000000E+00
  0.00000000E+00  0.00000000E+00  0.00000000E+00
  0.00000000E+00  0.00000000E+00  0.00000000E+00
  0.00000000E+00  0.00000000E+00  0.00000000E+00
  0.00000000E+00  0.00000000E+00  0.00000000E+00
  0.00000000E+00  0.00000000E+00  0.00000000E+00
  0.00000000E+00  0.00000000E+00  0.00000000E+00
  0.00000000E+00  0.00000000E+00  0.00000000E+00
  0.00000000E+00  0.00000000E+00  0.00000000E+00
  0.00000000E+00  0.00000000E+00  0.00000000E+00
  0.00000000E+00  0.00000000E+00  0.00000000E+00
  0.00000000E+00  0.00000000E+00  0.00000000E+00
  0.00000000E+00  0.00000000E+00  0.00000000E+00
  0.00000000E+00  0.00000000E+00  0.00000000E+00
  0.00000000E+00  0.00000000E+00  0.00000000E+00
  0.00000000E+00  0.00000000E+00  0.00000000E+00
  0.00000000E+00  0.00000000E+00  0.00000000E+00
  0.00000000E+00  0.00000000E+00  0.00000000E+00
  0.00000000E+00  0.00000000E+00  0.00000000E+00
  0.00000000E+00  0.00000000E+00  0.00000000E+00
  0.00000000E+00  0.00000000E+00  0.00000000E+00
  0.00000000E+00  0.00000000E+00  0.00000000E+00
  0.00000000E+00  0.00000000E+00  0.00000000E+00
  0.00000000E+00  0.00000000E+00  0.00000000E+00
  0.00000000E+00  0.00000000E+00  0.00000000E+00
  0.00000000E+00  0.00000000E+00  0.00000000E+00
  0.00000000E+00  0.00000000E+00  0.00000000E+00
  0.00000000E+00  0.00000000E+00  0.00000000E+00
  0.00000000E+00  0.00000000E+00  0.00000000E+00
  0.00000000E+00  0.00000000E+00  0.00000000E+00
  0.00000000E+00  0.00000000E+00  0.00000000E+00
  0.00000000E+00  0.00000000E+00  0.00000000E+00
  0.00000000E+00  0.00000000E+00  0.00000000E+00
  0.00000000E+00  0.00000000E+00  0.00000000E+00
  0.00000000E+00  0.00000000E+00  0.00000000E+00
  0.00000000E+00  0.00000000E+00  0.00000000E+00
  0.00000000E+00  0.00000000E+00  0.00000000E+00
  0.00000000E+00  0.00000000E+00  0.00000000E+00
  0.00000000E+00  0.00000000E+00  0.00000000E+00
  0.00000000E+00  0.00000000E+00  0.00000000E+00
  0.00000000E+00  0.00000000E+00  0.00000000E+00
  0.00000000E+00  0.00000000E+00  0.00000000E+00
  0.00000000E+00  0.00000000E+00  0.00000000E+00
  0.00000000E+00  0.00000000E+00  0.00000000E+00
  0.00000000E+00  0.00000000E+00  0.00000000E+00
  0.00000000E+00  0.00000000E+00  0.00000000E+00
  0.00000000E+00  0.00000000E+00  0.00000000E+00
  0.00000000E+00  0.00000000E+00  0.00000000E+00
  0.00000000E+00  0.00000000E+00  0.00000000E+00
  0.00000000E+00  0.00000000E+00  0.00000000E+00
  0.00000000E+00  0.00000000E+00  0.00000000E+00
  0.00000000E+00  0.00000000E+00  0.00000000E+00
  0.00000000E+00  0.00000000E+00  0.00000000E+00
  0.00000000E+00  0.00000000E+00  0.00000000E+00
  0.00000000E+00  0.00000000E+00  0.00000000E+00
  0.00000000E+00  0.00000000E+00  0.00000000E+00
  0.00000000E+00  0.00000000E+00  0.00000000E+00
  0.00000000E+00  0.00000000E+00  0.00000000E+00
  0.00000000E+00  0.00000000E+00  0.00000000E+00
  0.00000000E+00  0.00000000E+00  0.00000000E+00
  0.00000000E+00  0.00000000E+00  0.00000000E+00
  0.00000000E+00  0.00000000E+00  0.00000000E+00
  0.00000000E+00  0.00000000E+00  0.00000000E+00
